Li8 Ga8 Cl24                            
   1.00000000000000     
    12.4580134102173101    0.0000000000000000    0.0000000000000000
     0.0000000000000000    9.8917062659250501    0.0000000000000000
     0.0000000000000000    0.0000000000000000   15.3119158148490548
   Li   Ga   Cl
    15    16    48
Direct
  0.8087004302395617  0.4842783312602179  0.3774651714482930
  0.1917493401530787  0.9888529561940034  0.6280681296695015
  0.6885754691434612  0.9873132360452674  0.6296258860090577
  0.4432873471291838  0.0111253702225082  0.8648739994583805
  0.9370059454917731  0.0114142434910126  0.8648419055485186
  0.3148567967490318  0.4829898269962865  0.3717017222512043
  0.0584514353932687  0.5147229714994326  0.1318791491154500
  0.5627107312808816  0.5134653042632428  0.1333385498877110
  0.3133587923839303  0.0152762663619392  0.3721898612816602
  0.8083917563593205  0.0132471475722273  0.3733428225607934
  0.0592104923435112  0.9861522618374914  0.1318476678552807
  0.5606415646322693  0.9857156231414077  0.1337336899934373
  0.1889169283634689  0.5113999161825769  0.6290553369805586
  0.4369953536763159  0.4836184371766145  0.8664792487145422
  0.9320196246940419  0.4917346411526687  0.8642869491106804
  0.2765358153450488  0.7500000003542565  0.0041590796212971
  0.7761682724699537  0.7510979008144518  0.0055925759059927
  0.0253120417550420  0.2503509778489554  0.4962964311420761
  0.5308958006156520  0.2577478398560727  0.4953758082817328
  0.2236535566379995  0.2498592811915129  0.9962959481533251
  0.7239463236373257  0.2497004185370184  0.9959110064848683
  0.4770650663520914  0.7529526791093123  0.5066688631340521
  0.9743841896983436  0.7454600101206481  0.5021617511582664
  0.2079922236047093  0.7504701816929706  0.8563208919641848
  0.7101868481933831  0.7452743986294976  0.8573848973956919
  0.4627641825204902  0.2599040650900667  0.6443522110149961
  0.9551408217645310  0.2445631970864199  0.6435190447926040
  0.2915929669523898  0.2498304605125427  0.1442217401137407
  0.7917699047087770  0.2504147955975179  0.1435965718275628
  0.0437991945592359  0.7505584930961924  0.3552434370607673
  0.5419300667000634  0.7503886283311124  0.3576930478255751
  0.0282708758550628  0.7525218621917034  0.8419992014582015
  0.5294756912108439  0.7518051998135694  0.8450842269493157
  0.2808808785893915  0.2510526083188127  0.6532284471417779
  0.7787589076691265  0.2300311364495404  0.6603087286308933
  0.4712917251726919  0.2495935086344907  0.1599048623567939
  0.9716973637171862  0.2500154612023966  0.1580544766281118
  0.2228890458804989  0.7502623065257721  0.3390568948986682
  0.7213138002182400  0.7516355956770392  0.3398310237500942
  0.1021831237197177  0.7485819955418689  0.6090969373654718
  0.5980387534494079  0.7612399872532506  0.6125372729334668
  0.3492541618323833  0.2487723608759364  0.8889644377068169
  0.8512749469853512  0.2492760670602677  0.8897795293119856
  0.3943070728983542  0.2489302681847930  0.3932259385445727
  0.9000556704395429  0.2500863167108421  0.3881203242510066
  0.1485364266191162  0.7500951761601380  0.1103782932579505
  0.6489135573935828  0.7506829544630674  0.1127585916634231
  0.4728749844563848  0.5768650901789709  0.2763572703103422
  0.9758187370701578  0.5736410657963010  0.2767494653374379
  0.2250971961286669  0.4268535239250552  0.2223536609732595
  0.7259524435218555  0.4286795105047037  0.2203033321901534
  0.0297055106412193  0.0707375621672622  0.7214563246790530
  0.5237062353974091  0.0749750932612102  0.7198335073229426
  0.2761185372068110  0.9268552499115967  0.7783146847782527
  0.7756283387285808  0.9248463082622068  0.7805939865732214
  0.0216896863236737  0.4235514990025018  0.7207466780176188
  0.5203261430271208  0.4286750024086424  0.7287710723152508
  0.2715838662531217  0.5723472820550970  0.7782043255241413
  0.7749223623508831  0.5696700585971604  0.7834634230647132
  0.4751850315439797  0.9287059715942028  0.2786709390207438
  0.9754920744595524  0.9278579304029855  0.2771295892268533
  0.2248299303903658  0.0724743181093770  0.2220383017169566
  0.7252301799797278  0.0737392989294889  0.2224874278505948
  0.3631572511978328  0.9327964180188567  0.5269742682948588
  0.8680208284893841  0.9303325617269983  0.5270605156672659
  0.1157490385343430  0.0676569352848583  0.9711515743750886
  0.6153737237745721  0.0680324024438635  0.9712254358468340
  0.1344167677180134  0.4318727408850433  0.4708425771433509
  0.6316206272933457  0.4320755523736788  0.4512580471752026
  0.3839159340425300  0.5678074022687021  0.0299166840643289
  0.8849339643255594  0.5689535865166365  0.0319424702507437
  0.1334435511914321  0.0682595493764074  0.4695366196134818
  0.6336911968638885  0.0691884927397581  0.4695986764029959
  0.3842637135392185  0.9316794874661800  0.0304726087370191
  0.8846360402019595  0.9332926897563223  0.0315477865056659
  0.3677671504873762  0.5695254744557308  0.5292985053653811
  0.8670540529813405  0.5680151331567792  0.5263158938387470
  0.1158362478840021  0.4315937112641539  0.9711516917839024
  0.6156964696400637  0.4316828429834806  0.9727290487107074
 
  0.00000000E+00  0.00000000E+00  0.00000000E+00
  0.00000000E+00  0.00000000E+00  0.00000000E+00
  0.00000000E+00  0.00000000E+00  0.00000000E+00
  0.00000000E+00  0.00000000E+00  0.00000000E+00
  0.00000000E+00  0.00000000E+00  0.00000000E+00
  0.00000000E+00  0.00000000E+00  0.00000000E+00
  0.00000000E+00  0.00000000E+00  0.00000000E+00
  0.00000000E+00  0.00000000E+00  0.00000000E+00
  0.00000000E+00  0.00000000E+00  0.00000000E+00
  0.00000000E+00  0.00000000E+00  0.00000000E+00
  0.00000000E+00  0.00000000E+00  0.00000000E+00
  0.00000000E+00  0.00000000E+00  0.00000000E+00
  0.00000000E+00  0.00000000E+00  0.00000000E+00
  0.00000000E+00  0.00000000E+00  0.00000000E+00
  0.00000000E+00  0.00000000E+00  0.00000000E+00
  0.00000000E+00  0.00000000E+00  0.00000000E+00
  0.00000000E+00  0.00000000E+00  0.00000000E+00
  0.00000000E+00  0.00000000E+00  0.00000000E+00
  0.00000000E+00  0.00000000E+00  0.00000000E+00
  0.00000000E+00  0.00000000E+00  0.00000000E+00
  0.00000000E+00  0.00000000E+00  0.00000000E+00
  0.00000000E+00  0.00000000E+00  0.00000000E+00
  0.00000000E+00  0.00000000E+00  0.00000000E+00
  0.00000000E+00  0.00000000E+00  0.00000000E+00
  0.00000000E+00  0.00000000E+00  0.00000000E+00
  0.00000000E+00  0.00000000E+00  0.00000000E+00
  0.00000000E+00  0.00000000E+00  0.00000000E+00
  0.00000000E+00  0.00000000E+00  0.00000000E+00
  0.00000000E+00  0.00000000E+00  0.00000000E+00
  0.00000000E+00  0.00000000E+00  0.00000000E+00
  0.00000000E+00  0.00000000E+00  0.00000000E+00
  0.00000000E+00  0.00000000E+00  0.00000000E+00
  0.00000000E+00  0.00000000E+00  0.00000000E+00
  0.00000000E+00  0.00000000E+00  0.00000000E+00
  0.00000000E+00  0.00000000E+00  0.00000000E+00
  0.00000000E+00  0.00000000E+00  0.00000000E+00
  0.00000000E+00  0.00000000E+00  0.00000000E+00
  0.00000000E+00  0.00000000E+00  0.00000000E+00
  0.00000000E+00  0.00000000E+00  0.00000000E+00
  0.00000000E+00  0.00000000E+00  0.00000000E+00
  0.00000000E+00  0.00000000E+00  0.00000000E+00
  0.00000000E+00  0.00000000E+00  0.00000000E+00
  0.00000000E+00  0.00000000E+00  0.00000000E+00
  0.00000000E+00  0.00000000E+00  0.00000000E+00
  0.00000000E+00  0.00000000E+00  0.00000000E+00
  0.00000000E+00  0.00000000E+00  0.00000000E+00
  0.00000000E+00  0.00000000E+00  0.00000000E+00
  0.00000000E+00  0.00000000E+00  0.00000000E+00
  0.00000000E+00  0.00000000E+00  0.00000000E+00
  0.00000000E+00  0.00000000E+00  0.00000000E+00
  0.00000000E+00  0.00000000E+00  0.00000000E+00
  0.00000000E+00  0.00000000E+00  0.00000000E+00
  0.00000000E+00  0.00000000E+00  0.00000000E+00
  0.00000000E+00  0.00000000E+00  0.00000000E+00
  0.00000000E+00  0.00000000E+00  0.00000000E+00
  0.00000000E+00  0.00000000E+00  0.00000000E+00
  0.00000000E+00  0.00000000E+00  0.00000000E+00
  0.00000000E+00  0.00000000E+00  0.00000000E+00
  0.00000000E+00  0.00000000E+00  0.00000000E+00
  0.00000000E+00  0.00000000E+00  0.00000000E+00
  0.00000000E+00  0.00000000E+00  0.00000000E+00
  0.00000000E+00  0.00000000E+00  0.00000000E+00
  0.00000000E+00  0.00000000E+00  0.00000000E+00
  0.00000000E+00  0.00000000E+00  0.00000000E+00
  0.00000000E+00  0.00000000E+00  0.00000000E+00
  0.00000000E+00  0.00000000E+00  0.00000000E+00
  0.00000000E+00  0.00000000E+00  0.00000000E+00
  0.00000000E+00  0.00000000E+00  0.00000000E+00
  0.00000000E+00  0.00000000E+00  0.00000000E+00
  0.00000000E+00  0.00000000E+00  0.00000000E+00
  0.00000000E+00  0.00000000E+00  0.00000000E+00
  0.00000000E+00  0.00000000E+00  0.00000000E+00
  0.00000000E+00  0.00000000E+00  0.00000000E+00
  0.00000000E+00  0.00000000E+00  0.00000000E+00
  0.00000000E+00  0.00000000E+00  0.00000000E+00
  0.00000000E+00  0.00000000E+00  0.00000000E+00
  0.00000000E+00  0.00000000E+00  0.00000000E+00
  0.00000000E+00  0.00000000E+00  0.00000000E+00
  0.00000000E+00  0.00000000E+00  0.00000000E+00
