Li8 Ga8 Cl24                            
   1.00000000000000     
    12.4580134102173101    0.0000000000000000    0.0000000000000000
     0.0000000000000000    9.8917062659250501    0.0000000000000000
     0.0000000000000000    0.0000000000000000   15.3119158148490548
   Li   Ga   Cl
    15    16    48
Direct
  0.7898408693279849  0.3708591926697627  0.5035731527893972
  0.1979668059689274  0.9794439045074371  0.6276943148631958
  0.6829025998523290  0.9733815314517698  0.6268023260440578
  0.4449993762422300  0.0093773116396202  0.8670614266762918
  0.9358934290767245  0.0124178100851822  0.8697906977405276
  0.3149128911223084  0.4917665595376811  0.3671097137741088
  0.0644228625936908  0.5186481636449276  0.1296853058290879
  0.5694487145879761  0.5098605201684219  0.1336256050516142
  0.3082731256008967  0.0090016546689192  0.3679053263007717
  0.8054281258475948 -0.0051776521014293  0.3675325080118442
  0.0562769661245723  0.9898435574371770  0.1333870149791415
  0.5627982072394156  0.9886037254570416  0.1336650538886325
  0.1919733473225988  0.5218814983368264  0.6290538489378992
  0.4385565274170758  0.4810746645080254  0.8696129511448700
  0.9286309210476790  0.4931724364330353  0.8689466679463090
  0.2766878203076936  0.7507383575221416  0.0037841660640614
  0.7749589780849019  0.7526542533506819  0.0046399799578828
  0.0366709414452540  0.2475456787009902  0.4993039235485397
  0.5188291703988677  0.2531822179430995  0.4972356676659854
  0.2236652543319397  0.2498830123240369  0.9964179785091771
  0.7244654982716948  0.2486854875981889  0.9947788943968131
  0.4768335647396661  0.7527657287352075  0.5055815548620886
  0.9711748005012697  0.7400104550762151  0.5018202043793331
  0.2080730998570023  0.7512139737684125  0.8561504839543511
  0.7090026238230749  0.7485433002056587  0.8565849213735249
  0.4573364605096247  0.2570764114714025  0.6473714450812641
  0.9708012739495598  0.2476452894707553  0.6476838735814775
  0.2925404930894542  0.2495435591857596  0.1438937764560591
  0.7909588168393112  0.2541377028783006  0.1428908432386818
  0.0380789039485008  0.7398033328469479  0.3529917279720922
  0.5428774459175161  0.7568472134794600  0.3570341626268049
  0.0286964722061112  0.7521336714373887  0.8405314157282200
  0.5285192502028322  0.7542447225928073  0.8441607932504136
  0.2758912590946640  0.2480268773259454  0.6570842290945769
  0.7885067986932978  0.2495334281716617  0.6449130867755714
  0.4716871656070170  0.2488533089638838  0.1599149801649450
  0.9707135323518764  0.2465355767295649  0.1592745865749181
  0.2197564831423277  0.7492063692304423  0.3434526848240185
  0.7208399923433911  0.7670424236429002  0.3397123284629002
  0.1071738439625195  0.7517824913671213  0.6045842134379970
  0.5971192711725887  0.7539864263234947  0.6126867055644155
  0.3492441907934491  0.2482165512353903  0.8891368224885089
  0.8497312578881133  0.2481313599509523  0.8863385588634346
  0.3883407173744976  0.2474453069163357  0.3926080866319848
  0.8989564595158004  0.2499510326050783  0.4013374526495671
  0.1500938300715628  0.7522266732279763  0.1105270399547934
  0.6486793517887590  0.7522263560495014  0.1119631458776996
  0.4751840201726993  0.5813849468012606  0.2761872129784959
  0.9795250796741523  0.5728642497583468  0.2676928574947226
  0.2281669664653536  0.4274813521904528  0.2218999806568756
  0.7252481376225934  0.4311640991298344  0.2155887818600463
  0.0271388024446489  0.0664476138893832  0.7246877944636563
  0.5252659867817632  0.0746605457437183  0.7209073504314386
  0.2769587462519481  0.9270906222171035  0.7779542820632498
  0.7743134649382116  0.9264822389102153  0.7775848987020092
  0.0301490311103637  0.4226471649347986  0.7291791090700186
  0.5180846888736624  0.4268072103001388  0.7295347172625420
  0.2737804928579879  0.5742577950956109  0.7780427750882913
  0.7740826815990178  0.5695950808419111  0.7853795877982735
  0.4719559472422094  0.9329351981756986  0.2790395080235413
  0.9753019040448877  0.9272505424726473  0.2806497255214823
  0.2232323306744221  0.0728580895830759  0.2212352978879605
  0.7242973101996919  0.0760135228320446  0.2210817210682298
  0.3645126430740868  0.9332250154079332  0.5286675549051293
  0.8684422575733045  0.9283545264050050  0.5267183286513808
  0.1153792722680914  0.0681175469280916  0.9714954971814022
  0.6150422222230439  0.0669589389764258  0.9701946225670600
  0.1358273767468884  0.4345027951058711  0.4697050392038294
  0.6229252331964932  0.4249517821780601  0.4504593627216270
  0.3835055715177110  0.5682166367568047  0.0287743125613952
  0.8845849721105585  0.5701917631504784  0.0279521870668633
  0.1371786615533708  0.0642838911889142  0.4679676898995888
  0.6299096793924246  0.0702731549622534  0.4736563082358848
  0.3843203308205532  0.9324100392418320  0.0296748756342639
  0.8847369729824116  0.9338854020332654  0.0304020004730402
  0.3671854299269627  0.5696325858271888  0.5273860029056368
  0.8685347489867206  0.5740396771436224  0.5558976824621112
  0.1158527684231742  0.4321205490426324  0.9724628168314964
  0.6139412826544677  0.4299219020032006  0.9713918653386079
 
  0.00000000E+00  0.00000000E+00  0.00000000E+00
  0.00000000E+00  0.00000000E+00  0.00000000E+00
  0.00000000E+00  0.00000000E+00  0.00000000E+00
  0.00000000E+00  0.00000000E+00  0.00000000E+00
  0.00000000E+00  0.00000000E+00  0.00000000E+00
  0.00000000E+00  0.00000000E+00  0.00000000E+00
  0.00000000E+00  0.00000000E+00  0.00000000E+00
  0.00000000E+00  0.00000000E+00  0.00000000E+00
  0.00000000E+00  0.00000000E+00  0.00000000E+00
  0.00000000E+00  0.00000000E+00  0.00000000E+00
  0.00000000E+00  0.00000000E+00  0.00000000E+00
  0.00000000E+00  0.00000000E+00  0.00000000E+00
  0.00000000E+00  0.00000000E+00  0.00000000E+00
  0.00000000E+00  0.00000000E+00  0.00000000E+00
  0.00000000E+00  0.00000000E+00  0.00000000E+00
  0.00000000E+00  0.00000000E+00  0.00000000E+00
  0.00000000E+00  0.00000000E+00  0.00000000E+00
  0.00000000E+00  0.00000000E+00  0.00000000E+00
  0.00000000E+00  0.00000000E+00  0.00000000E+00
  0.00000000E+00  0.00000000E+00  0.00000000E+00
  0.00000000E+00  0.00000000E+00  0.00000000E+00
  0.00000000E+00  0.00000000E+00  0.00000000E+00
  0.00000000E+00  0.00000000E+00  0.00000000E+00
  0.00000000E+00  0.00000000E+00  0.00000000E+00
  0.00000000E+00  0.00000000E+00  0.00000000E+00
  0.00000000E+00  0.00000000E+00  0.00000000E+00
  0.00000000E+00  0.00000000E+00  0.00000000E+00
  0.00000000E+00  0.00000000E+00  0.00000000E+00
  0.00000000E+00  0.00000000E+00  0.00000000E+00
  0.00000000E+00  0.00000000E+00  0.00000000E+00
  0.00000000E+00  0.00000000E+00  0.00000000E+00
  0.00000000E+00  0.00000000E+00  0.00000000E+00
  0.00000000E+00  0.00000000E+00  0.00000000E+00
  0.00000000E+00  0.00000000E+00  0.00000000E+00
  0.00000000E+00  0.00000000E+00  0.00000000E+00
  0.00000000E+00  0.00000000E+00  0.00000000E+00
  0.00000000E+00  0.00000000E+00  0.00000000E+00
  0.00000000E+00  0.00000000E+00  0.00000000E+00
  0.00000000E+00  0.00000000E+00  0.00000000E+00
  0.00000000E+00  0.00000000E+00  0.00000000E+00
  0.00000000E+00  0.00000000E+00  0.00000000E+00
  0.00000000E+00  0.00000000E+00  0.00000000E+00
  0.00000000E+00  0.00000000E+00  0.00000000E+00
  0.00000000E+00  0.00000000E+00  0.00000000E+00
  0.00000000E+00  0.00000000E+00  0.00000000E+00
  0.00000000E+00  0.00000000E+00  0.00000000E+00
  0.00000000E+00  0.00000000E+00  0.00000000E+00
  0.00000000E+00  0.00000000E+00  0.00000000E+00
  0.00000000E+00  0.00000000E+00  0.00000000E+00
  0.00000000E+00  0.00000000E+00  0.00000000E+00
  0.00000000E+00  0.00000000E+00  0.00000000E+00
  0.00000000E+00  0.00000000E+00  0.00000000E+00
  0.00000000E+00  0.00000000E+00  0.00000000E+00
  0.00000000E+00  0.00000000E+00  0.00000000E+00
  0.00000000E+00  0.00000000E+00  0.00000000E+00
  0.00000000E+00  0.00000000E+00  0.00000000E+00
  0.00000000E+00  0.00000000E+00  0.00000000E+00
  0.00000000E+00  0.00000000E+00  0.00000000E+00
  0.00000000E+00  0.00000000E+00  0.00000000E+00
  0.00000000E+00  0.00000000E+00  0.00000000E+00
  0.00000000E+00  0.00000000E+00  0.00000000E+00
  0.00000000E+00  0.00000000E+00  0.00000000E+00
  0.00000000E+00  0.00000000E+00  0.00000000E+00
  0.00000000E+00  0.00000000E+00  0.00000000E+00
  0.00000000E+00  0.00000000E+00  0.00000000E+00
  0.00000000E+00  0.00000000E+00  0.00000000E+00
  0.00000000E+00  0.00000000E+00  0.00000000E+00
  0.00000000E+00  0.00000000E+00  0.00000000E+00
  0.00000000E+00  0.00000000E+00  0.00000000E+00
  0.00000000E+00  0.00000000E+00  0.00000000E+00
  0.00000000E+00  0.00000000E+00  0.00000000E+00
  0.00000000E+00  0.00000000E+00  0.00000000E+00
  0.00000000E+00  0.00000000E+00  0.00000000E+00
  0.00000000E+00  0.00000000E+00  0.00000000E+00
  0.00000000E+00  0.00000000E+00  0.00000000E+00
  0.00000000E+00  0.00000000E+00  0.00000000E+00
  0.00000000E+00  0.00000000E+00  0.00000000E+00
  0.00000000E+00  0.00000000E+00  0.00000000E+00
  0.00000000E+00  0.00000000E+00  0.00000000E+00
