Li8 Ga8 Cl24                            
   1.00000000000000     
    12.4580134102173101    0.0000000000000000    0.0000000000000000
     0.0000000000000000    9.8917062659250501    0.0000000000000000
     0.0000000000000000    0.0000000000000000   15.3119158148490548
   Li   Ga   Cl
    15    16    48
Direct
  0.6885794817295231  0.5126926798786090  0.6296216598823672
  0.1889343517808258  0.9886107764743901  0.6290808871880236
  0.4370785544836537  0.0163612613003386  0.8664444877732232
  0.9320435929550940  0.0082647279305083  0.8642913532191862
  0.3133501715509213  0.4847379356612155  0.3721859107345458
  0.8083827877253319  0.4867525430434617  0.3733316155785804
  0.0591898573142245  0.5138450069881133  0.1318523522404620
  0.5606456846271332  0.5142938435425951  0.1337194048505459
  0.3148140261779278  0.0169803567461777  0.3716940984080058
  0.8086535998185681  0.0156759934525354  0.3774606555695822
  0.0584350325940537  0.9852880255454888  0.1318897839962539
  0.5626705610366456  0.9865187253677233  0.1333356303525597
  0.1917235980681080  0.5111355774006130  0.6280993692012914
  0.4432719685796370  0.4888616850528806  0.8648871783421533
  0.9370091823064645  0.4885674329406048  0.8648636031447520
  0.2765430811866749  0.7499876817765888  0.0041675174028945
  0.7761637402459768  0.7489001600881915  0.0055913820955480
  0.0252978187636575  0.2496712768577397  0.4963039025815630
  0.5308885030753085  0.2422722312200293  0.4953634344061502
  0.2236547951705250  0.2501406652030601  0.9962893534721957
  0.7239425694112424  0.2502986112681140  0.9959074171064655
  0.4770502579703658  0.7470321238319516  0.5066546212488979
  0.9743861127105912  0.7545380555578602  0.5021662405722568
  0.2079971735819702  0.7495371972746153  0.8563286503757938
  0.7101914916578622  0.7547182054898880  0.8573799574634532
  0.4627449394733075  0.2401015713538308  0.6443386579425949
  0.9551256325214199  0.2554351170396378  0.6435280032491900
  0.2915946542034600  0.2501810108631261  0.1442104052858341
  0.7917669985825241  0.2495821389948424  0.1435954383040993
  0.0437916669062563  0.7494810633182807  0.3552416838420635
  0.5419325299884054  0.7496130911617316  0.3576895310393873
  0.0282784196022916  0.7474820631539330  0.8419992674907995
  0.5294950052157726  0.7482184158921777  0.8450703763129275
  0.2808583618450213  0.2489803827442618  0.6532302239728736
  0.7787375667834845  0.2699633343263974  0.6603094289156453
  0.4712891525188082  0.2504064040609572  0.1599020055135268
  0.9716944084444281  0.2499905119283716  0.1580514970644136
  0.2228951867645888  0.7497265738297447  0.3390546332866451
  0.7213173528363935  0.7483768019159430  0.3398304199860286
  0.1021843228049633  0.7514216401646977  0.6091017251399723
  0.5981089841932371  0.7387215671027954  0.6124901492546201
  0.3492546746998929  0.2512277829904554  0.8889610740158042
  0.8512701311758036  0.2507220860828590  0.8897754668962682
  0.3942901195383369  0.2510526155336281  0.3932088701168538
  0.9000498417677477  0.2499138701489607  0.3881138343621603
  0.1485388037591598  0.7499026817316373  0.1103847342682774
  0.6489077576760780  0.7493177728960164  0.1127581055773182
  0.4752385526670083  0.5712609444545601  0.2786800671445692
  0.9754788897168852  0.5721763741823155  0.2771380903910899
  0.2248292572883047  0.4275264337340806  0.2220337305687743
  0.7252331249174218  0.4262573559391349  0.2224776633054366
  0.0216957361205983  0.0764200797396595  0.7207533111610472
  0.5202907740686447  0.0712961360384072  0.7287424412416161
  0.2716075932252578  0.9276612768900614  0.7782447024683069
  0.7749298696611174  0.9303364385831693  0.7834598007573990
  0.0296806232415604  0.4292380019158246  0.7214762086021368
  0.5236996358464304  0.4250250486018479  0.7198385199425621
  0.2761000592907707  0.5731565126189632  0.7783271737943939
  0.7756164000117799  0.5751174416994294  0.7805883828781959
  0.4728705343167492  0.9231404454457355  0.2763592930204241
  0.9759048426290434  0.9264626000751752  0.2768050550491398
  0.2251070279178548  0.0731602518877056  0.2223421789125898
  0.7259453310731180  0.0713217217296836  0.2202981933901431
  0.3677698922879244  0.9304608600649933  0.5293004432052189
  0.8670571706090132  0.9319768391109204  0.5263160659484958
  0.1158334095599774  0.0684084352217938  0.9711495622281192
  0.6156909616408390  0.0683154291530465  0.9727221482014899
  0.1334366405491287  0.4317540891980608  0.4695568792905087
  0.6336989459212927  0.4308386546309358  0.4695976189760419
  0.3842721400320309  0.5683231411401531  0.0304641961121677
  0.8846354968161654  0.5667028251248858  0.0315455531312097
  0.1344181638802577  0.0681333219139174  0.4708395313610843
  0.6316551368256760  0.0679412076727268  0.4512554148563321
  0.3839171858399834  0.9321839316846936  0.0299249846136963
  0.8849333024888126  0.9310544042222310  0.0319458204588373
  0.3631737288057572  0.5671701853752481  0.5269752721452525
  0.8680214580654293  0.5696690178793603  0.5270616652413926
  0.1157474846707214  0.4323424236696924  0.9711503821207397
  0.6153752250337785  0.4319643451207057  0.9712226257249946
 
  0.00000000E+00  0.00000000E+00  0.00000000E+00
  0.00000000E+00  0.00000000E+00  0.00000000E+00
  0.00000000E+00  0.00000000E+00  0.00000000E+00
  0.00000000E+00  0.00000000E+00  0.00000000E+00
  0.00000000E+00  0.00000000E+00  0.00000000E+00
  0.00000000E+00  0.00000000E+00  0.00000000E+00
  0.00000000E+00  0.00000000E+00  0.00000000E+00
  0.00000000E+00  0.00000000E+00  0.00000000E+00
  0.00000000E+00  0.00000000E+00  0.00000000E+00
  0.00000000E+00  0.00000000E+00  0.00000000E+00
  0.00000000E+00  0.00000000E+00  0.00000000E+00
  0.00000000E+00  0.00000000E+00  0.00000000E+00
  0.00000000E+00  0.00000000E+00  0.00000000E+00
  0.00000000E+00  0.00000000E+00  0.00000000E+00
  0.00000000E+00  0.00000000E+00  0.00000000E+00
  0.00000000E+00  0.00000000E+00  0.00000000E+00
  0.00000000E+00  0.00000000E+00  0.00000000E+00
  0.00000000E+00  0.00000000E+00  0.00000000E+00
  0.00000000E+00  0.00000000E+00  0.00000000E+00
  0.00000000E+00  0.00000000E+00  0.00000000E+00
  0.00000000E+00  0.00000000E+00  0.00000000E+00
  0.00000000E+00  0.00000000E+00  0.00000000E+00
  0.00000000E+00  0.00000000E+00  0.00000000E+00
  0.00000000E+00  0.00000000E+00  0.00000000E+00
  0.00000000E+00  0.00000000E+00  0.00000000E+00
  0.00000000E+00  0.00000000E+00  0.00000000E+00
  0.00000000E+00  0.00000000E+00  0.00000000E+00
  0.00000000E+00  0.00000000E+00  0.00000000E+00
  0.00000000E+00  0.00000000E+00  0.00000000E+00
  0.00000000E+00  0.00000000E+00  0.00000000E+00
  0.00000000E+00  0.00000000E+00  0.00000000E+00
  0.00000000E+00  0.00000000E+00  0.00000000E+00
  0.00000000E+00  0.00000000E+00  0.00000000E+00
  0.00000000E+00  0.00000000E+00  0.00000000E+00
  0.00000000E+00  0.00000000E+00  0.00000000E+00
  0.00000000E+00  0.00000000E+00  0.00000000E+00
  0.00000000E+00  0.00000000E+00  0.00000000E+00
  0.00000000E+00  0.00000000E+00  0.00000000E+00
  0.00000000E+00  0.00000000E+00  0.00000000E+00
  0.00000000E+00  0.00000000E+00  0.00000000E+00
  0.00000000E+00  0.00000000E+00  0.00000000E+00
  0.00000000E+00  0.00000000E+00  0.00000000E+00
  0.00000000E+00  0.00000000E+00  0.00000000E+00
  0.00000000E+00  0.00000000E+00  0.00000000E+00
  0.00000000E+00  0.00000000E+00  0.00000000E+00
  0.00000000E+00  0.00000000E+00  0.00000000E+00
  0.00000000E+00  0.00000000E+00  0.00000000E+00
  0.00000000E+00  0.00000000E+00  0.00000000E+00
  0.00000000E+00  0.00000000E+00  0.00000000E+00
  0.00000000E+00  0.00000000E+00  0.00000000E+00
  0.00000000E+00  0.00000000E+00  0.00000000E+00
  0.00000000E+00  0.00000000E+00  0.00000000E+00
  0.00000000E+00  0.00000000E+00  0.00000000E+00
  0.00000000E+00  0.00000000E+00  0.00000000E+00
  0.00000000E+00  0.00000000E+00  0.00000000E+00
  0.00000000E+00  0.00000000E+00  0.00000000E+00
  0.00000000E+00  0.00000000E+00  0.00000000E+00
  0.00000000E+00  0.00000000E+00  0.00000000E+00
  0.00000000E+00  0.00000000E+00  0.00000000E+00
  0.00000000E+00  0.00000000E+00  0.00000000E+00
  0.00000000E+00  0.00000000E+00  0.00000000E+00
  0.00000000E+00  0.00000000E+00  0.00000000E+00
  0.00000000E+00  0.00000000E+00  0.00000000E+00
  0.00000000E+00  0.00000000E+00  0.00000000E+00
  0.00000000E+00  0.00000000E+00  0.00000000E+00
  0.00000000E+00  0.00000000E+00  0.00000000E+00
  0.00000000E+00  0.00000000E+00  0.00000000E+00
  0.00000000E+00  0.00000000E+00  0.00000000E+00
  0.00000000E+00  0.00000000E+00  0.00000000E+00
  0.00000000E+00  0.00000000E+00  0.00000000E+00
  0.00000000E+00  0.00000000E+00  0.00000000E+00
  0.00000000E+00  0.00000000E+00  0.00000000E+00
  0.00000000E+00  0.00000000E+00  0.00000000E+00
  0.00000000E+00  0.00000000E+00  0.00000000E+00
  0.00000000E+00  0.00000000E+00  0.00000000E+00
  0.00000000E+00  0.00000000E+00  0.00000000E+00
  0.00000000E+00  0.00000000E+00  0.00000000E+00
  0.00000000E+00  0.00000000E+00  0.00000000E+00
  0.00000000E+00  0.00000000E+00  0.00000000E+00
