Li8 Ga8 Cl24                            
   1.00000000000000     
    12.4580134102173101    0.0000000000000000    0.0000000000000000
     0.0000000000000000    9.8917062659250501    0.0000000000000000
     0.0000000000000000    0.0000000000000000   15.3119158148490548
   Li   Ga   Cl
    15    16    48
Direct
  0.6899949628942451  0.5168114012401669  0.6231546399579141
  0.1867712384598773  0.9845505460866160  0.6282048633408820
  0.6914822026302508  0.9870263797064882  0.6266000190034290
  0.4402364477603046  0.0135926378851570  0.8684173910177118
  0.9387446865992484  0.0137553265958787  0.8660729377291299
  0.3119246612151009  0.4889053535532690  0.3712644906442679
  0.0654982323070233  0.5180680173679372  0.1331172991630610
  0.5689774493399494  0.5090184557268331  0.1353955677342353
  0.3072973506694049  0.0120980084842660  0.3727911377761033
  0.8112396348430938  0.0122418116185052  0.3703474632301793
  0.0562394167113844  0.9896121704893859  0.1351833513738598
  0.5634830258781004  0.9894859413132394  0.1351463229848222
  0.1841459292479337  0.5172078072301366  0.6286395985796134
  0.4410006106705535  0.4852304503954711  0.8687574424201805
  0.9358073728385097  0.4868648639479808  0.8664075639814753
  0.2761338769401365  0.7501754547218147  0.0033198416072829
  0.7759158167493069  0.7503892910952397  0.0037957204566146
  0.0228874493969267  0.2472343653562650  0.4936725333556776
  0.5259745444384982  0.2551846163961957  0.4986120722917556
  0.2236365544471005  0.2498974700881221  0.9961933519634427
  0.7240964809869003  0.2489471257716632  0.9942765994418711
  0.4748620903281163  0.7502905018734866  0.5030688153425176
  0.9688245607958076  0.7411626631171400  0.5043878937533327
  0.2081161948875445  0.7502063572740100  0.8554674964601731
  0.7077758080252993  0.7495436453894567  0.8562059508114115
  0.4561242634928888  0.2497236101191084  0.6453184785150944
  0.9578250762578746  0.2491257296775138  0.6425256488174803
  0.2921603330862993  0.2493160454282028  0.1440046461064625
  0.7903657321835217  0.2547080652271246  0.1423864770401103
  0.0364148962015772  0.7383805142143248  0.3552374828300018
  0.5451095771295705  0.7563579524148851  0.3559192924209775
  0.0285806228238309  0.7499623777106906  0.8394827712817852
  0.5280231262176807  0.7499747974831602  0.8414314671651016
  0.2769284002247001  0.2498334336687248  0.6607553492781598
  0.7784652272882669  0.2479196234221653  0.6599668644391353
  0.4718771892537730  0.2475863040751839  0.1583920751691399
  0.9710457681757032  0.2458557320196980  0.1543848263812241
  0.2186726523698644  0.7467805250626296  0.3467670502933501
  0.7216222797027446  0.7701929185749619  0.3400200895445422
  0.1056690605166478  0.7510837338274632  0.6061718124327546
  0.6000729913193317  0.7504193701294962  0.6115682017846595
  0.3517476424367005  0.2499228766565038  0.8901320772365543
  0.8511541713258792  0.2493100059337983  0.8869399056441297
  0.3977434769288845  0.2519472854276031  0.3919113666669196
  0.9020341576565587  0.2386346577147358  0.3877249986777574
  0.1509095670355245  0.7516872008920907  0.1109895053573639
  0.6483935545839686  0.7511272838473745  0.1097908023074221
  0.4788724167722004  0.5768901724185715  0.2787897838560228
  0.9799608909570005  0.5700306853506196  0.2696198886025470
  0.2297124567694681  0.4281689013014848  0.2220051063302908
  0.7256074935047557  0.4309705538254127  0.2159968631601519
  0.0243834116782244  0.0699075836597707  0.7208674814863074
  0.5245234905744343  0.0724096837530513  0.7230280288206354
  0.2748432472794658  0.9273606641183365  0.7775355590316768
  0.7745308253125153  0.9252996308766805  0.7769704676593523
  0.0274902563190606  0.4215688725816566  0.7246671750149276
  0.5241220837137037  0.4268019436106319  0.7236026777338126
  0.2747012521904375  0.5735392661746981  0.7772349432303466
  0.7733852707567412  0.5712024206005141  0.7794535989272120
  0.4701497221484758  0.9301852271816539  0.2785352554389742
  0.9756008697987593  0.9238872492258382  0.2798533450447137
  0.2234209679823381  0.0738019736629166  0.2225308149224349
  0.7248436169512730  0.0752813579038518  0.2195928328316755
  0.3665556719476674  0.9316904932901120  0.5304488348988600
  0.8666055244513521  0.9296869983383089  0.5307471698160670
  0.1160732526658444  0.0684672875601696  0.9696158060497343
  0.6154255345867193  0.0669472588646483  0.9687171217631751
  0.1326158906916232  0.4302393207051813  0.4713410334919399
  0.6331147797835421  0.4325025428218816  0.4738601975062434
  0.3841503212093310  0.5686014161458973  0.0281576413266856
  0.8845643999097865  0.5686931727085168  0.0265494102821507
  0.1367331116856779  0.0673462095538826  0.4734569903579862
  0.6323459378695016  0.0701794765276602  0.4734503180688520
  0.3840125412986084  0.9322396690649547  0.0282547527477158
  0.8845809699877251  0.9319348175103063  0.0283182790855389
  0.3662257852058626  0.5685048958437612  0.5289473284938276
  0.8684702743189503  0.5673162824921478  0.5496289946075119
  0.1166369163976309  0.4323647880861230  0.9709481140742903
  0.6148449611659492  0.4309258818352893  0.9686034152398130
 
  0.00000000E+00  0.00000000E+00  0.00000000E+00
  0.00000000E+00  0.00000000E+00  0.00000000E+00
  0.00000000E+00  0.00000000E+00  0.00000000E+00
  0.00000000E+00  0.00000000E+00  0.00000000E+00
  0.00000000E+00  0.00000000E+00  0.00000000E+00
  0.00000000E+00  0.00000000E+00  0.00000000E+00
  0.00000000E+00  0.00000000E+00  0.00000000E+00
  0.00000000E+00  0.00000000E+00  0.00000000E+00
  0.00000000E+00  0.00000000E+00  0.00000000E+00
  0.00000000E+00  0.00000000E+00  0.00000000E+00
  0.00000000E+00  0.00000000E+00  0.00000000E+00
  0.00000000E+00  0.00000000E+00  0.00000000E+00
  0.00000000E+00  0.00000000E+00  0.00000000E+00
  0.00000000E+00  0.00000000E+00  0.00000000E+00
  0.00000000E+00  0.00000000E+00  0.00000000E+00
  0.00000000E+00  0.00000000E+00  0.00000000E+00
  0.00000000E+00  0.00000000E+00  0.00000000E+00
  0.00000000E+00  0.00000000E+00  0.00000000E+00
  0.00000000E+00  0.00000000E+00  0.00000000E+00
  0.00000000E+00  0.00000000E+00  0.00000000E+00
  0.00000000E+00  0.00000000E+00  0.00000000E+00
  0.00000000E+00  0.00000000E+00  0.00000000E+00
  0.00000000E+00  0.00000000E+00  0.00000000E+00
  0.00000000E+00  0.00000000E+00  0.00000000E+00
  0.00000000E+00  0.00000000E+00  0.00000000E+00
  0.00000000E+00  0.00000000E+00  0.00000000E+00
  0.00000000E+00  0.00000000E+00  0.00000000E+00
  0.00000000E+00  0.00000000E+00  0.00000000E+00
  0.00000000E+00  0.00000000E+00  0.00000000E+00
  0.00000000E+00  0.00000000E+00  0.00000000E+00
  0.00000000E+00  0.00000000E+00  0.00000000E+00
  0.00000000E+00  0.00000000E+00  0.00000000E+00
  0.00000000E+00  0.00000000E+00  0.00000000E+00
  0.00000000E+00  0.00000000E+00  0.00000000E+00
  0.00000000E+00  0.00000000E+00  0.00000000E+00
  0.00000000E+00  0.00000000E+00  0.00000000E+00
  0.00000000E+00  0.00000000E+00  0.00000000E+00
  0.00000000E+00  0.00000000E+00  0.00000000E+00
  0.00000000E+00  0.00000000E+00  0.00000000E+00
  0.00000000E+00  0.00000000E+00  0.00000000E+00
  0.00000000E+00  0.00000000E+00  0.00000000E+00
  0.00000000E+00  0.00000000E+00  0.00000000E+00
  0.00000000E+00  0.00000000E+00  0.00000000E+00
  0.00000000E+00  0.00000000E+00  0.00000000E+00
  0.00000000E+00  0.00000000E+00  0.00000000E+00
  0.00000000E+00  0.00000000E+00  0.00000000E+00
  0.00000000E+00  0.00000000E+00  0.00000000E+00
  0.00000000E+00  0.00000000E+00  0.00000000E+00
  0.00000000E+00  0.00000000E+00  0.00000000E+00
  0.00000000E+00  0.00000000E+00  0.00000000E+00
  0.00000000E+00  0.00000000E+00  0.00000000E+00
  0.00000000E+00  0.00000000E+00  0.00000000E+00
  0.00000000E+00  0.00000000E+00  0.00000000E+00
  0.00000000E+00  0.00000000E+00  0.00000000E+00
  0.00000000E+00  0.00000000E+00  0.00000000E+00
  0.00000000E+00  0.00000000E+00  0.00000000E+00
  0.00000000E+00  0.00000000E+00  0.00000000E+00
  0.00000000E+00  0.00000000E+00  0.00000000E+00
  0.00000000E+00  0.00000000E+00  0.00000000E+00
  0.00000000E+00  0.00000000E+00  0.00000000E+00
  0.00000000E+00  0.00000000E+00  0.00000000E+00
  0.00000000E+00  0.00000000E+00  0.00000000E+00
  0.00000000E+00  0.00000000E+00  0.00000000E+00
  0.00000000E+00  0.00000000E+00  0.00000000E+00
  0.00000000E+00  0.00000000E+00  0.00000000E+00
  0.00000000E+00  0.00000000E+00  0.00000000E+00
  0.00000000E+00  0.00000000E+00  0.00000000E+00
  0.00000000E+00  0.00000000E+00  0.00000000E+00
  0.00000000E+00  0.00000000E+00  0.00000000E+00
  0.00000000E+00  0.00000000E+00  0.00000000E+00
  0.00000000E+00  0.00000000E+00  0.00000000E+00
  0.00000000E+00  0.00000000E+00  0.00000000E+00
  0.00000000E+00  0.00000000E+00  0.00000000E+00
  0.00000000E+00  0.00000000E+00  0.00000000E+00
  0.00000000E+00  0.00000000E+00  0.00000000E+00
  0.00000000E+00  0.00000000E+00  0.00000000E+00
  0.00000000E+00  0.00000000E+00  0.00000000E+00
  0.00000000E+00  0.00000000E+00  0.00000000E+00
  0.00000000E+00  0.00000000E+00  0.00000000E+00
