Li   Ga   Cl                            
   1.00000000000000     
    12.4580134102172995    0.0000000000000000    0.0000000000000000
     0.0000000000000000    9.8917062659250501    0.0000000000000000
     0.0000000000000000    0.0000000000000000   15.3119158148490992
   Li   Ga   Cl
    15    16    48
Direct
  0.7754981152515974  0.3917861731208442  0.5271831250336021
  0.1983709375442861  0.9856637926492183  0.6277604938203438
  0.6780565588628176  0.9686836133089990  0.6276394460490673
  0.4463277322041800  0.0013192613047601  0.8664525973481201
  0.9366448684555013  0.0106321724869508  0.8681856543497372
  0.3146938166390703  0.4946518221867616  0.3662024712525643
  0.0713885824182926  0.5264016671104368  0.1291144524845599
  0.5744960335115477  0.5136151338540569  0.1334296819031833
  0.3068597062120301  0.0098757482335239  0.3694934328020318
  0.8079156603324605  1.0052903982299857  0.3712942237267363
  0.0519945648709801  1.0006827270197920  0.1341392289791694
  0.5613879569214423  0.9926605224311345  0.1350044453577447
  0.1889303972883033  0.5223408893044382  0.6281248213123339
  0.4345961142481690  0.4760830242698728  0.8699784095872888
  0.9269952265818494  0.4897147513949084  0.8698630904203850
  0.2770368258387979  0.7509064868282944  0.0021540718608855
  0.7752224643933016  0.7535258415839406  0.0042658695454590
  0.0302859145711803  0.2485237027587705  0.4990363754770440
  0.5178385597961020  0.2501494937262014  0.4964670376788084
  0.2239893658097224  0.2495704431595160  0.9966784672561593
  0.7245084520697350  0.2482364055905359  0.9957279671160438
  0.4756341934756172  0.7510821153694327  0.5038033280384938
  0.9740558059408452  0.7450454657185365  0.5021397965359413
  0.2077482127995307  0.7507678868393600  0.8548738558133824
  0.7084043065948344  0.7488839931563843  0.8565448138579167
  0.4566056236794040  0.2543906192119850  0.6466993039080808
  0.9689951810761344  0.2470850649761743  0.6487572395314896
  0.2933658067032061  0.2487013569349014  0.1439019321154521
  0.7912637656305790  0.2527239230442941  0.1436154609400384
  0.0380014754319950  0.7398296865440958  0.3522208485408965
  0.5435053955879308  0.7570869301910708  0.3558741391971865
  0.0284889335587772  0.7521096937075111  0.8393037244749243
  0.5280488424644538  0.7549828610034053  0.8427344537420596
  0.2754230017709105  0.2447953683071060  0.6571250425368870
  0.7861372681057434  0.2503387073300790  0.6534084786241371
  0.4725425881214307  0.2460341367026065  0.1598937692937169
  0.9712428790047394  0.2428814007060599  0.1595963526431630
  0.2197964466945024  0.7496671379650733  0.3432511564393335
  0.7210279366654887  0.7686496504520002  0.3401199622952911
  0.1117285069126357  0.7549324418928154  0.6034124082513622
  0.5954719311025507  0.7488035621163727  0.6115891736911490
  0.3494405777809756  0.2473970980067249  0.8894274123557854
  0.8500442368229063  0.2478231356915216  0.8874699106263472
  0.3875023570164808  0.2463384495554536  0.3919891990498038
  0.8906944758107050  0.2537797505957603  0.4050890755642134
  0.1515030180946251  0.7550702556985859  0.1094860824331465
  0.6494241151054737  0.7532723620417314  0.1118515823632338
  0.4769574807097746  0.5811908681312705  0.2747639389303459
  0.9814926107323190  0.5725500035185951  0.2667631435946592
  0.2299457168470538  0.4286378254292818  0.2209392610731269
  0.7282742201899856  0.4317362132238787  0.2158672803767130
  0.0259937526608927  0.0644737661811334  0.7242428407031880
  0.5249597523466575  0.0719603370463860  0.7201887470554267
  0.2771061302989654  0.9273045242598952  0.7776075430705104
  0.7741634796962633  0.9246732100831969  0.7758978099143723
  0.0308045750592703  0.4201467469966974  0.7311415574628902
  0.5171189319644007  0.4238665998589655  0.7292315634634313
  0.2735088068865858  0.5740156404868009  0.7764094831905910
  0.7720388925677892  0.5680284498289389  0.7864853486109155
  0.4707093644102399  0.9324405468641919  0.2783658732070544
  0.9745742394734522  0.9273595785467125  0.2808315342708624
  0.2224083774661507  0.0740439809160279  0.2219468281482298
  0.7237156366754844  0.0763559712264910  0.2224179441392196
  0.3644949826728455  0.9327607860574629  0.5280007871756417
  0.8696044002856510  0.9316845136376971  0.5272990214822555
  0.1154895162067396  0.0689595953811984  0.9709583237808698
  0.6156747665150846  0.0667519420851376  0.9701231751094388
  0.1326959973731542  0.4335130638321011  0.4701883790579431
  0.6224394284910999  0.4216494753501979  0.4490466944059136
  0.3839102456428696  0.5685785937028217  0.0273348427997904
  0.8852450691603555  0.5719029736555570  0.0277008403121723
  0.1346811192184798  0.0670012360332372  0.4687332898195514
  0.6290020421929478  0.0671059464029175  0.4747125354607644
  0.3847736954652207  0.9323894967240158  0.0279897153120861
  0.8850007164773311  0.9348173283769503  0.0294308382981843
  0.3661380327573001  0.5677038570762382  0.5256485948777837
  0.8742289431448821  0.5816553224848567  0.5639226016582617
  0.1165015833412173  0.4323252868073155  0.9730544640312556
  0.6146105237860610  0.4299241544740871  0.9726105300596340
 
             NaN             NaN             NaN
             NaN             NaN             NaN
             NaN             NaN             NaN
             NaN             NaN             NaN
             NaN             NaN             NaN
             NaN             NaN             NaN
             NaN             NaN             NaN
             NaN             NaN             NaN
             NaN             NaN             NaN
             NaN             NaN             NaN
             NaN             NaN             NaN
             NaN             NaN             NaN
             NaN             NaN             NaN
             NaN             NaN             NaN
             NaN             NaN             NaN
             NaN             NaN             NaN
             NaN             NaN             NaN
             NaN             NaN             NaN
             NaN             NaN             NaN
             NaN             NaN             NaN
             NaN             NaN             NaN
             NaN             NaN             NaN
             NaN             NaN             NaN
             NaN             NaN             NaN
             NaN             NaN             NaN
             NaN             NaN             NaN
             NaN             NaN             NaN
             NaN             NaN             NaN
             NaN             NaN             NaN
             NaN             NaN             NaN
             NaN             NaN             NaN
             NaN             NaN             NaN
             NaN             NaN             NaN
             NaN             NaN             NaN
             NaN             NaN             NaN
             NaN             NaN             NaN
             NaN             NaN             NaN
             NaN             NaN             NaN
             NaN             NaN             NaN
             NaN             NaN             NaN
             NaN             NaN             NaN
             NaN             NaN             NaN
             NaN             NaN             NaN
             NaN             NaN             NaN
             NaN             NaN             NaN
             NaN             NaN             NaN
             NaN             NaN             NaN
             NaN             NaN             NaN
             NaN             NaN             NaN
             NaN             NaN             NaN
             NaN             NaN             NaN
             NaN             NaN             NaN
             NaN             NaN             NaN
             NaN             NaN             NaN
             NaN             NaN             NaN
             NaN             NaN             NaN
             NaN             NaN             NaN
             NaN             NaN             NaN
             NaN             NaN             NaN
             NaN             NaN             NaN
             NaN             NaN             NaN
             NaN             NaN             NaN
             NaN             NaN             NaN
             NaN             NaN             NaN
             NaN             NaN             NaN
             NaN             NaN             NaN
             NaN             NaN             NaN
             NaN             NaN             NaN
             NaN             NaN             NaN
             NaN             NaN             NaN
             NaN             NaN             NaN
             NaN             NaN             NaN
             NaN             NaN             NaN
             NaN             NaN             NaN
             NaN             NaN             NaN
             NaN             NaN             NaN
             NaN             NaN             NaN
             NaN             NaN             NaN
             NaN             NaN             NaN
