Li8 Ga8 Cl24                            
   1.00000000000000     
    12.4580134102173101    0.0000000000000000    0.0000000000000000
     0.0000000000000000    9.8917062659250501    0.0000000000000000
     0.0000000000000000    0.0000000000000000   15.3119158148490548
   Li   Ga   Cl
    15    16    48
Direct
  0.6885749820040399  0.9873130680134228  0.6296266586312840
  0.1917511753997335  0.9888530184796035  0.6280664346317968
  0.4432880480900904  0.0111267742950424  0.8648740706448087
  0.9370049747846153  0.0114150138628141  0.8648420879959278
  0.3148563224980455  0.4829903103228815  0.3717024242971972
  0.8087000539484200  0.4842787024236164  0.3774660371510016
  0.0584524857563493  0.5147238880552230  0.1318779119449046
  0.5627116006570656  0.5134655282239095  0.1333379967600576
  0.3133589759996182  0.0152767777648728  0.3721904167448459
  0.8083925373903675  0.0132471539754675  0.3733439483620879
  0.0592114418070826  0.9861516376768240  0.1318465218517042
  0.5606423676569698  0.9857153633646655  0.1337329459501455
  0.1889186214328840  0.5113996127652480  0.6290552540804604
  0.4369962558654727  0.4836177727608306  0.8664796288300370
  0.9320203770444845  0.4917329983028257  0.8642863638098836
  0.2765347470655309  0.7500002406125180  0.0041580441036451
  0.7761680282033409  0.7510987573858555  0.0055919362616758
  0.0253131591068713  0.2503479250009566  0.4962984072838521
  0.5308952672723432  0.2577463877241737  0.4953753816231945
  0.2236523636990014  0.2498571066673266  0.9962990743870584
  0.7239477877527074  0.2496993663528555  0.9959120530376629
  0.4770671323586672  0.7529541728469763  0.5066676601807107
  0.9743850375450543  0.7454600570944042  0.5021585483700041
  0.2079917766629846  0.7504723097119069  0.8563197570131346
  0.7101865301662259  0.7452749587595320  0.8573844016249028
  0.4627637856242239  0.2599023588445462  0.6443510391457201
  0.9551403959833739  0.2445603100279266  0.6435195818962570
  0.2915924671290603  0.2498311016639755  0.1442223379046894
  0.7917700971119588  0.2504134719772122  0.1435966286449896
  0.0437971397739965  0.7505605042483066  0.3552395476826491
  0.5419313443851644  0.7503910468806230  0.3576918610683610
  0.0282708885927642  0.7525178924169871  0.8420003721113946
  0.5294751831109129  0.7518034380712963  0.8450819800704331
  0.2808794454604323  0.2510502726825311  0.6532288848788462
  0.7787581688781422  0.2300348728594913  0.6603075107579733
  0.4712915450843536  0.2495942153930212  0.1599000449754946
  0.9716969109448532  0.2500152232448851  0.1580531099894093
  0.2228862431702835  0.7502654704730912  0.3390612090406026
  0.7213154763247855  0.7516365531896333  0.3398316238870425
  0.1021814571125375  0.7485860414172626  0.6090976676092784
  0.5980399510429325  0.7612391652188997  0.6125348529023714
  0.3492595754779935  0.2487706994409894  0.8889671806673128
  0.8512759891020971  0.2492746174147072  0.8897792055753534
  0.3943110389926942  0.2489296833847185  0.3932235909565200
  0.9000558460992913  0.2500820315668945  0.3881197021913743
  0.1485354699087151  0.7500950918929623  0.1103812839039655
  0.6489093157700005  0.7506845497361032  0.1127574513226783
  0.4728768272283436  0.5768592381003862  0.2763613955402367
  0.9758264836207016  0.5736321303688997  0.2767602655464952
  0.2250987813450190  0.4268562373767354  0.2223517696118617
  0.7259523388611774  0.4286770198877128  0.2203040991098985
  0.0297015693318093  0.0707381554313523  0.7214585186085648
  0.5237047422312012  0.0749736453010507  0.7198329780397769
  0.2761013861377066  0.9268578172676829  0.7783234603047448
  0.7756243732046799  0.9248496142712715  0.7805939900946866
  0.0216972086333856  0.4235504970662923  0.7207424258616701
  0.5203277129552643  0.4286755240318538  0.7287701608761914
  0.2715880778297405  0.5723524368288353  0.7782048483138836
  0.7749244621743442  0.5696704081659368  0.7834635992136104
  0.4751808429238576  0.9287028206944697  0.2786703697347338
  0.9754888429991391  0.9278625592816915  0.2771313792521096
  0.2248336639901540  0.0724740150313737  0.2220372752201673
  0.7252296682651158  0.0737343546856006  0.2224829256651822
  0.3631583550676136  0.9327970255798345  0.5269764966376529
  0.8680220276035097  0.9303351540570113  0.5270635611167728
  0.1157475034878285  0.0676567544924341  0.9711504246454896
  0.6153732175039859  0.0680323607796497  0.9712250429571621
  0.1344193483884542  0.4318695887432884  0.4708390647226879
  0.6316052577482826  0.4320872396970664  0.4512566321169508
  0.3839182898936378  0.5678089746071572  0.0299189085544630
  0.8849339143717899  0.5689532099880834  0.0319410028185797
  0.1334479364036719  0.0682588885683926  0.4695366441494160
  0.6336888920737902  0.0691872420355163  0.4695986049307448
  0.3842637564952594  0.9316800002415090  0.0304713110766877
  0.8846372369101421  0.9332929218615824  0.0315452044548438
  0.3677679771251054  0.5695274973698820  0.5292991778949818
  0.8670561754608085  0.5680137974911108  0.5263192350988050
  0.1158355191029014  0.4315950527423734  0.9711501554893051
  0.6156969262260501  0.4316827156172930  0.9727274148744034
 
  0.00000000E+00  0.00000000E+00  0.00000000E+00
  0.00000000E+00  0.00000000E+00  0.00000000E+00
  0.00000000E+00  0.00000000E+00  0.00000000E+00
  0.00000000E+00  0.00000000E+00  0.00000000E+00
  0.00000000E+00  0.00000000E+00  0.00000000E+00
  0.00000000E+00  0.00000000E+00  0.00000000E+00
  0.00000000E+00  0.00000000E+00  0.00000000E+00
  0.00000000E+00  0.00000000E+00  0.00000000E+00
  0.00000000E+00  0.00000000E+00  0.00000000E+00
  0.00000000E+00  0.00000000E+00  0.00000000E+00
  0.00000000E+00  0.00000000E+00  0.00000000E+00
  0.00000000E+00  0.00000000E+00  0.00000000E+00
  0.00000000E+00  0.00000000E+00  0.00000000E+00
  0.00000000E+00  0.00000000E+00  0.00000000E+00
  0.00000000E+00  0.00000000E+00  0.00000000E+00
  0.00000000E+00  0.00000000E+00  0.00000000E+00
  0.00000000E+00  0.00000000E+00  0.00000000E+00
  0.00000000E+00  0.00000000E+00  0.00000000E+00
  0.00000000E+00  0.00000000E+00  0.00000000E+00
  0.00000000E+00  0.00000000E+00  0.00000000E+00
  0.00000000E+00  0.00000000E+00  0.00000000E+00
  0.00000000E+00  0.00000000E+00  0.00000000E+00
  0.00000000E+00  0.00000000E+00  0.00000000E+00
  0.00000000E+00  0.00000000E+00  0.00000000E+00
  0.00000000E+00  0.00000000E+00  0.00000000E+00
  0.00000000E+00  0.00000000E+00  0.00000000E+00
  0.00000000E+00  0.00000000E+00  0.00000000E+00
  0.00000000E+00  0.00000000E+00  0.00000000E+00
  0.00000000E+00  0.00000000E+00  0.00000000E+00
  0.00000000E+00  0.00000000E+00  0.00000000E+00
  0.00000000E+00  0.00000000E+00  0.00000000E+00
  0.00000000E+00  0.00000000E+00  0.00000000E+00
  0.00000000E+00  0.00000000E+00  0.00000000E+00
  0.00000000E+00  0.00000000E+00  0.00000000E+00
  0.00000000E+00  0.00000000E+00  0.00000000E+00
  0.00000000E+00  0.00000000E+00  0.00000000E+00
  0.00000000E+00  0.00000000E+00  0.00000000E+00
  0.00000000E+00  0.00000000E+00  0.00000000E+00
  0.00000000E+00  0.00000000E+00  0.00000000E+00
  0.00000000E+00  0.00000000E+00  0.00000000E+00
  0.00000000E+00  0.00000000E+00  0.00000000E+00
  0.00000000E+00  0.00000000E+00  0.00000000E+00
  0.00000000E+00  0.00000000E+00  0.00000000E+00
  0.00000000E+00  0.00000000E+00  0.00000000E+00
  0.00000000E+00  0.00000000E+00  0.00000000E+00
  0.00000000E+00  0.00000000E+00  0.00000000E+00
  0.00000000E+00  0.00000000E+00  0.00000000E+00
  0.00000000E+00  0.00000000E+00  0.00000000E+00
  0.00000000E+00  0.00000000E+00  0.00000000E+00
  0.00000000E+00  0.00000000E+00  0.00000000E+00
  0.00000000E+00  0.00000000E+00  0.00000000E+00
  0.00000000E+00  0.00000000E+00  0.00000000E+00
  0.00000000E+00  0.00000000E+00  0.00000000E+00
  0.00000000E+00  0.00000000E+00  0.00000000E+00
  0.00000000E+00  0.00000000E+00  0.00000000E+00
  0.00000000E+00  0.00000000E+00  0.00000000E+00
  0.00000000E+00  0.00000000E+00  0.00000000E+00
  0.00000000E+00  0.00000000E+00  0.00000000E+00
  0.00000000E+00  0.00000000E+00  0.00000000E+00
  0.00000000E+00  0.00000000E+00  0.00000000E+00
  0.00000000E+00  0.00000000E+00  0.00000000E+00
  0.00000000E+00  0.00000000E+00  0.00000000E+00
  0.00000000E+00  0.00000000E+00  0.00000000E+00
  0.00000000E+00  0.00000000E+00  0.00000000E+00
  0.00000000E+00  0.00000000E+00  0.00000000E+00
  0.00000000E+00  0.00000000E+00  0.00000000E+00
  0.00000000E+00  0.00000000E+00  0.00000000E+00
  0.00000000E+00  0.00000000E+00  0.00000000E+00
  0.00000000E+00  0.00000000E+00  0.00000000E+00
  0.00000000E+00  0.00000000E+00  0.00000000E+00
  0.00000000E+00  0.00000000E+00  0.00000000E+00
  0.00000000E+00  0.00000000E+00  0.00000000E+00
  0.00000000E+00  0.00000000E+00  0.00000000E+00
  0.00000000E+00  0.00000000E+00  0.00000000E+00
  0.00000000E+00  0.00000000E+00  0.00000000E+00
  0.00000000E+00  0.00000000E+00  0.00000000E+00
  0.00000000E+00  0.00000000E+00  0.00000000E+00
  0.00000000E+00  0.00000000E+00  0.00000000E+00
  0.00000000E+00  0.00000000E+00  0.00000000E+00
