Li8 Ga8 Cl24                            
   1.00000000000000     
    12.4580134102173101    0.0000000000000000    0.0000000000000000
     0.0000000000000000    9.8917062659250501    0.0000000000000000
     0.0000000000000000    0.0000000000000000   15.3119158148490548
   Li   Ga   Cl
    15    16    48
Direct
  0.7740212821026677  0.7501184435868147  0.6368268501884906
  0.1959739930019741  0.9968105055025152  0.6284872916307643
  0.4368226389360769  0.0183730510444882  0.8642967175047220
  0.9357023709167169  0.0098807913783611  0.8612076483187017
  0.3172514933576657  0.4799547587193123  0.3722602704493180
  0.7993313559136965  0.4742650769282477  0.3719639769085877
  0.0608073213189694  0.5138866739000448  0.1327591047606583
  0.5606603805506686  0.5136151062713014  0.1326227811074364
  0.3172324643449308  0.0200682189384561  0.3722760358153673
  0.7993097865486651  0.0256874421835700  0.3719511471525383
  0.0608092656892682  0.9861187024379571  0.1327674506835938
  0.5606588586043253  0.9864014285820472  0.1326256657702451
  0.1959543270283542  0.5032092645463444  0.6284714045165080
  0.4367938216451240  0.4815701566991393  0.8642892150775380
  0.9356750865842118  0.4902045155708466  0.8611982277316090
  0.2768620018420932  0.7500050091459908  0.0047248761451586
  0.7774212777635684  0.7500120982739885  0.0065496524781430
  0.0245118807524142  0.2500155369740245  0.4991169625279797
  0.5363123921110341  0.2500085699442631  0.4961144708795911
  0.2228876864871796  0.2500047937031232  0.9970121055333301
  0.7243729394606742  0.2500068182852320  0.9947968102365732
  0.4756138120438790  0.7500208264961163  0.5051108046109355
  0.9820408141581841  0.7500563685048353  0.5026896068711396
  0.2084478240841098  0.7500120480331360  0.8567999162241255
  0.7090944901986976  0.7500198274217555  0.8594898103888501
  0.4675984936417605  0.2499784794242619  0.6459085390694440
  0.9533410263284022  0.2500154360464750  0.6459620727464934
  0.2918092615865933  0.2499997078547551  0.1445259912680069
  0.7929846181708571  0.2500172888504341  0.1420472111921973
  0.0433951795368054  0.7500264382047401  0.3536267281878733
  0.5436304104327966  0.7500095849956422  0.3573185120885052
  0.0283357518286820  0.7500361386451176  0.8419739714914861
  0.5290100119825640  0.7500297635482153  0.8491371643963442
  0.2824718057283545  0.2500050858959088  0.6476638402196732
  0.7803130226574860  0.2499992962206928  0.6628034672410855
  0.4714855055368520  0.2500053795976786  0.1601336021347302
  0.9721955434158418  0.2500104666659657  0.1595905549862196
  0.2219988455977580  0.7500288118414328  0.3385828777746341
  0.7228934106425361  0.7500123662253748  0.3411792187163569
  0.1111224161539596  0.7500926843665984  0.6075361412562549
  0.5833235886953486  0.7498878173939271  0.6203355759486254
  0.3469966499278028  0.2499996889354448  0.8888747715592410
  0.8515556820207943  0.2500068913337674  0.8887833081469710
  0.3947980914785807  0.2499896998344034  0.3953120287362250
  0.8969113503593820  0.2499993616949646  0.3906870621108194
  0.1479470065194620  0.7500099324045199  0.1103547037373894
  0.6494355547612134  0.7500048587634860  0.1126555717996000
  0.4747769871846484  0.5753269886435866  0.2766847935668878
  0.9745559212354061  0.5725865073952134  0.2773386197681015
  0.2258838378113995  0.4273185503498245  0.2228323037913932
  0.7256598096111522  0.4272115282150259  0.2197195643155930
  0.0290350830333969  0.0736928727274405  0.7222611108320595
  0.5186180460990222  0.0730373339263187  0.7273703273089396
  0.2741282890818416  0.9269477469862630  0.7789227960103469
  0.7749847167070238  0.9209330164755857  0.7763153189721339
  0.0290070599706299  0.4263246601746143  0.7223023961101372
  0.5186948536724889  0.4268417506609673  0.7273939962708225
  0.2741170403464793  0.5730573266343503  0.7789189915296371
  0.7749650644246810  0.5790905747987860  0.7763310251500750
  0.4747936903735423  0.9246984895417619  0.2766863764768079
  0.9744886965328249  0.9274307429338858  0.2773285098016431
  0.2258816878443402  0.0726854251964079  0.2228340374147591
  0.7256439191773794  0.0728340553010414  0.2197146876175274
  0.3644164841157936  0.9324397039780021  0.5251473707062144
  0.8674692241898971  0.9208058769385135  0.5387803740343965
  0.1153662580141337  0.0679095019914809  0.9723972440040337
  0.6161737911009284  0.0681480887091337  0.9715133081637328
  0.1303261694052547  0.4327608667035359  0.4695797489199494
  0.6330703844179976  0.4327051930983984  0.4547769640099339
  0.3835842694844739  0.5675264002692769  0.0309631738929634
  0.8850880659331258  0.5677852733729231  0.0309702641272708
  0.1303905428932971  0.0673419923602353  0.4696182065635352
  0.6331104924225226  0.0673234849417551  0.4548079836523493
  0.3835805953254528  0.9324855603911923  0.0309693713823287
  0.8850916502139186  0.9322274397714787  0.0309791446858839
  0.3644271913401318  0.5675182503246418  0.5250315300494780
  0.8675051701401346  0.5793479465864013  0.5388562347924772
  0.1153817372243544  0.4321299669032487  0.9724311347206519
  0.6161708739093359  0.4318576278829168  0.9715114596127750
 
  0.00000000E+00  0.00000000E+00  0.00000000E+00
  0.00000000E+00  0.00000000E+00  0.00000000E+00
  0.00000000E+00  0.00000000E+00  0.00000000E+00
  0.00000000E+00  0.00000000E+00  0.00000000E+00
  0.00000000E+00  0.00000000E+00  0.00000000E+00
  0.00000000E+00  0.00000000E+00  0.00000000E+00
  0.00000000E+00  0.00000000E+00  0.00000000E+00
  0.00000000E+00  0.00000000E+00  0.00000000E+00
  0.00000000E+00  0.00000000E+00  0.00000000E+00
  0.00000000E+00  0.00000000E+00  0.00000000E+00
  0.00000000E+00  0.00000000E+00  0.00000000E+00
  0.00000000E+00  0.00000000E+00  0.00000000E+00
  0.00000000E+00  0.00000000E+00  0.00000000E+00
  0.00000000E+00  0.00000000E+00  0.00000000E+00
  0.00000000E+00  0.00000000E+00  0.00000000E+00
  0.00000000E+00  0.00000000E+00  0.00000000E+00
  0.00000000E+00  0.00000000E+00  0.00000000E+00
  0.00000000E+00  0.00000000E+00  0.00000000E+00
  0.00000000E+00  0.00000000E+00  0.00000000E+00
  0.00000000E+00  0.00000000E+00  0.00000000E+00
  0.00000000E+00  0.00000000E+00  0.00000000E+00
  0.00000000E+00  0.00000000E+00  0.00000000E+00
  0.00000000E+00  0.00000000E+00  0.00000000E+00
  0.00000000E+00  0.00000000E+00  0.00000000E+00
  0.00000000E+00  0.00000000E+00  0.00000000E+00
  0.00000000E+00  0.00000000E+00  0.00000000E+00
  0.00000000E+00  0.00000000E+00  0.00000000E+00
  0.00000000E+00  0.00000000E+00  0.00000000E+00
  0.00000000E+00  0.00000000E+00  0.00000000E+00
  0.00000000E+00  0.00000000E+00  0.00000000E+00
  0.00000000E+00  0.00000000E+00  0.00000000E+00
  0.00000000E+00  0.00000000E+00  0.00000000E+00
  0.00000000E+00  0.00000000E+00  0.00000000E+00
  0.00000000E+00  0.00000000E+00  0.00000000E+00
  0.00000000E+00  0.00000000E+00  0.00000000E+00
  0.00000000E+00  0.00000000E+00  0.00000000E+00
  0.00000000E+00  0.00000000E+00  0.00000000E+00
  0.00000000E+00  0.00000000E+00  0.00000000E+00
  0.00000000E+00  0.00000000E+00  0.00000000E+00
  0.00000000E+00  0.00000000E+00  0.00000000E+00
  0.00000000E+00  0.00000000E+00  0.00000000E+00
  0.00000000E+00  0.00000000E+00  0.00000000E+00
  0.00000000E+00  0.00000000E+00  0.00000000E+00
  0.00000000E+00  0.00000000E+00  0.00000000E+00
  0.00000000E+00  0.00000000E+00  0.00000000E+00
  0.00000000E+00  0.00000000E+00  0.00000000E+00
  0.00000000E+00  0.00000000E+00  0.00000000E+00
  0.00000000E+00  0.00000000E+00  0.00000000E+00
  0.00000000E+00  0.00000000E+00  0.00000000E+00
  0.00000000E+00  0.00000000E+00  0.00000000E+00
  0.00000000E+00  0.00000000E+00  0.00000000E+00
  0.00000000E+00  0.00000000E+00  0.00000000E+00
  0.00000000E+00  0.00000000E+00  0.00000000E+00
  0.00000000E+00  0.00000000E+00  0.00000000E+00
  0.00000000E+00  0.00000000E+00  0.00000000E+00
  0.00000000E+00  0.00000000E+00  0.00000000E+00
  0.00000000E+00  0.00000000E+00  0.00000000E+00
  0.00000000E+00  0.00000000E+00  0.00000000E+00
  0.00000000E+00  0.00000000E+00  0.00000000E+00
  0.00000000E+00  0.00000000E+00  0.00000000E+00
  0.00000000E+00  0.00000000E+00  0.00000000E+00
  0.00000000E+00  0.00000000E+00  0.00000000E+00
  0.00000000E+00  0.00000000E+00  0.00000000E+00
  0.00000000E+00  0.00000000E+00  0.00000000E+00
  0.00000000E+00  0.00000000E+00  0.00000000E+00
  0.00000000E+00  0.00000000E+00  0.00000000E+00
  0.00000000E+00  0.00000000E+00  0.00000000E+00
  0.00000000E+00  0.00000000E+00  0.00000000E+00
  0.00000000E+00  0.00000000E+00  0.00000000E+00
  0.00000000E+00  0.00000000E+00  0.00000000E+00
  0.00000000E+00  0.00000000E+00  0.00000000E+00
  0.00000000E+00  0.00000000E+00  0.00000000E+00
  0.00000000E+00  0.00000000E+00  0.00000000E+00
  0.00000000E+00  0.00000000E+00  0.00000000E+00
  0.00000000E+00  0.00000000E+00  0.00000000E+00
  0.00000000E+00  0.00000000E+00  0.00000000E+00
  0.00000000E+00  0.00000000E+00  0.00000000E+00
  0.00000000E+00  0.00000000E+00  0.00000000E+00
  0.00000000E+00  0.00000000E+00  0.00000000E+00
