Li8 Ga8 Cl24                            
   1.00000000000000     
    12.4580134102173101    0.0000000000000000    0.0000000000000000
     0.0000000000000000    9.8917062659250501    0.0000000000000000
     0.0000000000000000    0.0000000000000000   15.3119158148490548
   Li   Ga   Cl
    15    16    48
Direct
  0.6581376719236047  0.6055259327094332  0.2178288323795878
  0.1871641007401004  0.9829439425147097  0.6309044058689752
  0.6912561885951058  0.9914290891586547  0.6287562478478276
  0.4402822824953970  0.0140641118344475  0.8706374068509317
  0.9404088261808510  0.0165997831130492  0.8689504441007774
  0.3077785856907311  0.4850723856019008  0.3733022763649625
  0.0752493802143111  0.5213285819455128  0.1323215355355999
  0.3011271127379396  0.0173802056802129  0.3708376347028163
  0.8197164982497654  0.0241564804845259  0.3686831251918485
  0.0542643270314856  0.9926518852004003  0.1335570911602075
  0.5542937372905755  0.0042671265062849  0.1319754674836534
  0.1858888295441213  0.5186028633773367  0.6318192242682686
  0.6886864852852244  0.5127453973476459  0.6263767591865276
  0.4403861926483487  0.4828437850020261  0.8726158995010457
  0.9364900523497830  0.4812568152524467  0.8673058483193153
  0.2769148275690806  0.7474418626084807  0.0013996977880301
  0.7780279951194653  0.7511608503768605 -0.0003077615365109
  0.0257028971258835  0.2476127084172530  0.4947678295861329
  0.5248062763969820  0.2544182873264195  0.4995125232419170
  0.2240240752480942  0.2497579345294869  0.9959775469107789
  0.7193631428701295  0.2581739607203427  0.9942876874020556
  0.4707120106765385  0.7534847826371429  0.5106857185128387
  0.9686150448677578  0.7400799456813949  0.5041591186227862
  0.2062152192321725  0.7508653472169119  0.8550052467007130
  0.7087585232453820  0.7498467650235815  0.8526665245515636
  0.4555014596395703  0.2497234417567501  0.6463481554499954
  0.9586211468316682  0.2489454610976154  0.6429795945097250
  0.2945418611672583  0.2455083886483556  0.1432057234162430
  0.7897498281202173  0.2499117710209063  0.1420240672495183
  0.0386324782725883  0.7379946461421167  0.3558679820122547
  0.5324921905919746  0.7607905104252081  0.3622485099546733
  0.0267828465843642  0.7491375040782686  0.8394666798789957
  0.5293879528483724  0.7528972027756544  0.8402947957053919
  0.2762511196509465  0.2500793778314767  0.6610304183546943
  0.7789004821304347  0.2472395311006791  0.6599950582404857
  0.4723172501152186  0.2341552780126277  0.1593600976193758
  0.9712643729065691  0.2379232686534433  0.1500397223710803
  0.2205472767207647  0.7489648100630925  0.3483329969018829
  0.7111518372982085  0.7581707060220696  0.3365875842970970
  0.1035166599329939  0.7511511473714524  0.6071735167225648
  0.6015551603332084  0.7515530246494020  0.6131083190611167
  0.3498828231605311  0.2505525216877107  0.8883145447294625
  0.8556276921760578  0.2495629947481512  0.8924907548152883
  0.3962566721660098  0.2543042975732992  0.3928240332668944
  0.9072622848477000  0.2430516220805505  0.3870314156695646
  0.1513817727107238  0.7527610239656620  0.1095596337108623
  0.6452928994909907  0.7610610705431052  0.1027837201936361
  0.4787339955417375  0.5817135646064487  0.2800993013428517
  0.9852487792499744  0.5698298838632302  0.2690393724636224
  0.2339029033008640  0.4270611532795187  0.2206137862951466
  0.7412750675789269  0.4047392890815940  0.2410880684649656
  0.0241150290449081  0.0693862374914562  0.7209002329044151
  0.5247365385540704  0.0742829260997319  0.7250267869009015
  0.2739732104496939  0.9277576385968803  0.7771945971796915
  0.7755823983342364  0.9279769437084670  0.7755550324554262
  0.0273895298007827  0.4214390591397500  0.7249319716640086
  0.5228027390265388  0.4287456984454914  0.7224739167089937
  0.2734603781969429  0.5740184821048953  0.7768141305614734
  0.7766209093278141  0.5732224005755600  0.7757693763751768
  0.4658499423846602  0.9355676852498988  0.2836277925931113
  0.9748167590865803  0.9219373811498607  0.2803974799363343
  0.2195905920160903  0.0738125804447688  0.2223370296482026
  0.7267439137632045  0.0643933742940726  0.2154294739672712
  0.3653316498554141  0.9356173218032364  0.5378830171546568
  0.8651974117061323  0.9295161664742142  0.5264375541607345
  0.1171880038171603  0.0682254601805446  0.9677117480190769
  0.6164697459975351  0.0705120129777750  0.9689780188773798
  0.1344132965650447  0.4315137255505651  0.4720997909031966
  0.6311310728250590  0.4334741970695083  0.4760882785690710
  0.3835808501715478  0.5687768576672398  0.0250010784874631
  0.8799365346734292  0.5681952241411038  0.0320033242901954
  0.1377269704635898  0.0666058805428855  0.4731370240121948
  0.6319999125484875  0.0706749630344999  0.4725655978091724
  0.3837317537428971  0.9322418839458659  0.0266375981790352
  0.8870784193695410  0.9311199061450359  0.0259973294774473
  0.3638530705719925  0.5708666469576572  0.5340024241099344
  0.8674326407048563  0.5666600758564092  0.5478729340952964
  0.1155992336036217  0.4324148067553072  0.9725425252889525
  0.6183095750155108  0.4335500502523899  0.9533621314311455
 
  0.00000000E+00  0.00000000E+00  0.00000000E+00
  0.00000000E+00  0.00000000E+00  0.00000000E+00
  0.00000000E+00  0.00000000E+00  0.00000000E+00
  0.00000000E+00  0.00000000E+00  0.00000000E+00
  0.00000000E+00  0.00000000E+00  0.00000000E+00
  0.00000000E+00  0.00000000E+00  0.00000000E+00
  0.00000000E+00  0.00000000E+00  0.00000000E+00
  0.00000000E+00  0.00000000E+00  0.00000000E+00
  0.00000000E+00  0.00000000E+00  0.00000000E+00
  0.00000000E+00  0.00000000E+00  0.00000000E+00
  0.00000000E+00  0.00000000E+00  0.00000000E+00
  0.00000000E+00  0.00000000E+00  0.00000000E+00
  0.00000000E+00  0.00000000E+00  0.00000000E+00
  0.00000000E+00  0.00000000E+00  0.00000000E+00
  0.00000000E+00  0.00000000E+00  0.00000000E+00
  0.00000000E+00  0.00000000E+00  0.00000000E+00
  0.00000000E+00  0.00000000E+00  0.00000000E+00
  0.00000000E+00  0.00000000E+00  0.00000000E+00
  0.00000000E+00  0.00000000E+00  0.00000000E+00
  0.00000000E+00  0.00000000E+00  0.00000000E+00
  0.00000000E+00  0.00000000E+00  0.00000000E+00
  0.00000000E+00  0.00000000E+00  0.00000000E+00
  0.00000000E+00  0.00000000E+00  0.00000000E+00
  0.00000000E+00  0.00000000E+00  0.00000000E+00
  0.00000000E+00  0.00000000E+00  0.00000000E+00
  0.00000000E+00  0.00000000E+00  0.00000000E+00
  0.00000000E+00  0.00000000E+00  0.00000000E+00
  0.00000000E+00  0.00000000E+00  0.00000000E+00
  0.00000000E+00  0.00000000E+00  0.00000000E+00
  0.00000000E+00  0.00000000E+00  0.00000000E+00
  0.00000000E+00  0.00000000E+00  0.00000000E+00
  0.00000000E+00  0.00000000E+00  0.00000000E+00
  0.00000000E+00  0.00000000E+00  0.00000000E+00
  0.00000000E+00  0.00000000E+00  0.00000000E+00
  0.00000000E+00  0.00000000E+00  0.00000000E+00
  0.00000000E+00  0.00000000E+00  0.00000000E+00
  0.00000000E+00  0.00000000E+00  0.00000000E+00
  0.00000000E+00  0.00000000E+00  0.00000000E+00
  0.00000000E+00  0.00000000E+00  0.00000000E+00
  0.00000000E+00  0.00000000E+00  0.00000000E+00
  0.00000000E+00  0.00000000E+00  0.00000000E+00
  0.00000000E+00  0.00000000E+00  0.00000000E+00
  0.00000000E+00  0.00000000E+00  0.00000000E+00
  0.00000000E+00  0.00000000E+00  0.00000000E+00
  0.00000000E+00  0.00000000E+00  0.00000000E+00
  0.00000000E+00  0.00000000E+00  0.00000000E+00
  0.00000000E+00  0.00000000E+00  0.00000000E+00
  0.00000000E+00  0.00000000E+00  0.00000000E+00
  0.00000000E+00  0.00000000E+00  0.00000000E+00
  0.00000000E+00  0.00000000E+00  0.00000000E+00
  0.00000000E+00  0.00000000E+00  0.00000000E+00
  0.00000000E+00  0.00000000E+00  0.00000000E+00
  0.00000000E+00  0.00000000E+00  0.00000000E+00
  0.00000000E+00  0.00000000E+00  0.00000000E+00
  0.00000000E+00  0.00000000E+00  0.00000000E+00
  0.00000000E+00  0.00000000E+00  0.00000000E+00
  0.00000000E+00  0.00000000E+00  0.00000000E+00
  0.00000000E+00  0.00000000E+00  0.00000000E+00
  0.00000000E+00  0.00000000E+00  0.00000000E+00
  0.00000000E+00  0.00000000E+00  0.00000000E+00
  0.00000000E+00  0.00000000E+00  0.00000000E+00
  0.00000000E+00  0.00000000E+00  0.00000000E+00
  0.00000000E+00  0.00000000E+00  0.00000000E+00
  0.00000000E+00  0.00000000E+00  0.00000000E+00
  0.00000000E+00  0.00000000E+00  0.00000000E+00
  0.00000000E+00  0.00000000E+00  0.00000000E+00
  0.00000000E+00  0.00000000E+00  0.00000000E+00
  0.00000000E+00  0.00000000E+00  0.00000000E+00
  0.00000000E+00  0.00000000E+00  0.00000000E+00
  0.00000000E+00  0.00000000E+00  0.00000000E+00
  0.00000000E+00  0.00000000E+00  0.00000000E+00
  0.00000000E+00  0.00000000E+00  0.00000000E+00
  0.00000000E+00  0.00000000E+00  0.00000000E+00
  0.00000000E+00  0.00000000E+00  0.00000000E+00
  0.00000000E+00  0.00000000E+00  0.00000000E+00
  0.00000000E+00  0.00000000E+00  0.00000000E+00
  0.00000000E+00  0.00000000E+00  0.00000000E+00
  0.00000000E+00  0.00000000E+00  0.00000000E+00
  0.00000000E+00  0.00000000E+00  0.00000000E+00
