Li8 Ga8 Cl24                            
   1.00000000000000     
    12.4580134102173101    0.0000000000000000    0.0000000000000000
     0.0000000000000000    9.8917062659250501    0.0000000000000000
     0.0000000000000000    0.0000000000000000   15.3119158148490548
   Li   Ga   Cl
    15    16    48
Direct
  0.5690101734173625  0.5090438448201824  0.1353825137530079
  0.1867799523248313  0.9845501597494731  0.6282211194801697
  0.6914784370123437  0.9870372445524187  0.6266045254053849
  0.4402227795364816  0.0135850206554889  0.8684270463270183
  0.9387245074608640  0.0137445258564916  0.8660727043672399
  0.3119453324290728  0.4889212475187668  0.3712687547232359
  0.0655712473205140  0.5181181013050115  0.1331106017835580
  0.3072691709602958  0.0121296332035185  0.3728147767060572
  0.8112383246287419  0.0122404496180265  0.3703448218663386
  0.0562244392005835  0.9896381973612526  0.1351868430281495
  0.5634914503077062  0.9895187808654677  0.1351431905226317
  0.1841228324837513  0.5172030107547091  0.6286542470321040
  0.6899652159606929  0.5168387296689997  0.6231806142065132
  0.4409864010195266  0.4852309100067344  0.8687787445524533
  0.9357649201373198  0.4868693205612988  0.8664033618817790
  0.2761298328371308  0.7501684370797110  0.0033142863982345
  0.7759131693784204  0.7503867033823747  0.0037911611993715
  0.0228855603349568  0.2472382361079612  0.4936817666939164
  0.5259857179624216  0.2551946787151121  0.4986280682746113
  0.2236419463838364  0.2499008529679711  0.9962038200330015
  0.7241040146319196  0.2489547098524396  0.9942692158141594
  0.4748677084145738  0.7503041457875336  0.5030571593560643
  0.9688158063087875  0.7411299799932265  0.5043768028885507
  0.2081065466667370  0.7501965979801068  0.8554677252956422
  0.7077587596552295  0.7495389189095456  0.8562042458244346
  0.4561242882024921  0.2497359529582366  0.6453306704370808
  0.9578152182926325  0.2491179239471133  0.6425356703273246
  0.2921694118618435  0.2493103711572768  0.1440091540646933
  0.7903750653463855  0.2547005042515458  0.1423831045305689
  0.0364136617747294  0.7383430189290294  0.3552224522082499
  0.5451112167164788  0.7563660914537498  0.3559011934868030
  0.0285810775831747  0.7499471556347096  0.8394706155147206
  0.5280131304332382  0.7499755684586540  0.8414146003673495
  0.2769229986826233  0.2498273584099321  0.6607445145374791
  0.7784511927948320  0.2478945582175991  0.6599546261426472
  0.4718780648441424  0.2475935231758057  0.1584023394100831
  0.9710557947838285  0.2457842108341739  0.1543727765782286
  0.2186725785540964  0.7467298105974489  0.3467657534350472
  0.7216386400731630  0.7701911468637732  0.3400347534793475
  0.1056601566844174  0.7510746784462714  0.6061609140635146
  0.6000823430536040  0.7504428286370304  0.6115574975956852
  0.3517537986171694  0.2499222715879856  0.8901425938600612
  0.8511676428783799  0.2493033872824325  0.8869309389342734
  0.3977433491131896  0.2519646144353369  0.3919439117165017
  0.9020301439619527  0.2386318739995351  0.3877336147207470
  0.1509069496991628  0.7517042582314565  0.1109840659746786
  0.6483802476158909  0.7511443457116066  0.1097791115777643
  0.4788740602607460  0.5769022419302008  0.2787790708036249
  0.9799747514462748  0.5700035132572628  0.2695687486772709
  0.2297500548651854  0.4281721287830726  0.2220088342169286
  0.7256222353938009  0.4309775532572627  0.2159744663452881
  0.0243718658496369  0.0698714987740581  0.7208486410447446
  0.5245224852158245  0.0724176783578398  0.7230290192565321
  0.2748279593536983  0.9273603666768336  0.7775235781910671
  0.7745181013575108  0.9252700228029165  0.7769587880387679
  0.0274992322276555  0.4215314434647862  0.7246898380851323
  0.5241208801409509  0.4268110147645010  0.7236124812204948
  0.2746912358546407  0.5735540830593199  0.7772252894126431
  0.7733588758587783  0.5712042202046888  0.7794468326783180
  0.4701603851224118  0.9302078402882714  0.2785352169721034
  0.9755797618553157  0.9238596149951924  0.2798334887624963
  0.2234139844152942  0.0738289134706038  0.2225619204403126
  0.7248673472217103  0.0752762921445390  0.2196005223192185
  0.3665499626409589  0.9316929206303264  0.5304454170998074
  0.8666168964087827  0.9296690041659074  0.5307515661813333
  0.1160791028853089  0.0684644880394356  0.9696178059008600
  0.6154222286136679  0.0669452948486720  0.9687312131970243
  0.1326283973171173  0.4302320263177373  0.4713607988940105
  0.6331145553385710  0.4325208117917731  0.4738609744523141
  0.3841495966773472  0.5686109290594663  0.0281373359859320
  0.8845726328252521  0.5687096347604514  0.0265269745307815
  0.1367294334584752  0.0673488830755099  0.4734678939273212
  0.6323576826045518  0.0701907364117026  0.4734594061961097
  0.3840103922985956  0.9322449048651240  0.0282284167579040
  0.8845758894966460  0.9319372420119463  0.0282969310752961
  0.3662433660888004  0.5685198368778741  0.5289448030613737
  0.8684722269705853  0.5672747276864616  0.5496556144810616
  0.1166541959585548  0.4323689535957981  0.9709782946573887
  0.6148295167928581  0.4309306929826354  0.9686276104726047
 
  0.00000000E+00  0.00000000E+00  0.00000000E+00
  0.00000000E+00  0.00000000E+00  0.00000000E+00
  0.00000000E+00  0.00000000E+00  0.00000000E+00
  0.00000000E+00  0.00000000E+00  0.00000000E+00
  0.00000000E+00  0.00000000E+00  0.00000000E+00
  0.00000000E+00  0.00000000E+00  0.00000000E+00
  0.00000000E+00  0.00000000E+00  0.00000000E+00
  0.00000000E+00  0.00000000E+00  0.00000000E+00
  0.00000000E+00  0.00000000E+00  0.00000000E+00
  0.00000000E+00  0.00000000E+00  0.00000000E+00
  0.00000000E+00  0.00000000E+00  0.00000000E+00
  0.00000000E+00  0.00000000E+00  0.00000000E+00
  0.00000000E+00  0.00000000E+00  0.00000000E+00
  0.00000000E+00  0.00000000E+00  0.00000000E+00
  0.00000000E+00  0.00000000E+00  0.00000000E+00
  0.00000000E+00  0.00000000E+00  0.00000000E+00
  0.00000000E+00  0.00000000E+00  0.00000000E+00
  0.00000000E+00  0.00000000E+00  0.00000000E+00
  0.00000000E+00  0.00000000E+00  0.00000000E+00
  0.00000000E+00  0.00000000E+00  0.00000000E+00
  0.00000000E+00  0.00000000E+00  0.00000000E+00
  0.00000000E+00  0.00000000E+00  0.00000000E+00
  0.00000000E+00  0.00000000E+00  0.00000000E+00
  0.00000000E+00  0.00000000E+00  0.00000000E+00
  0.00000000E+00  0.00000000E+00  0.00000000E+00
  0.00000000E+00  0.00000000E+00  0.00000000E+00
  0.00000000E+00  0.00000000E+00  0.00000000E+00
  0.00000000E+00  0.00000000E+00  0.00000000E+00
  0.00000000E+00  0.00000000E+00  0.00000000E+00
  0.00000000E+00  0.00000000E+00  0.00000000E+00
  0.00000000E+00  0.00000000E+00  0.00000000E+00
  0.00000000E+00  0.00000000E+00  0.00000000E+00
  0.00000000E+00  0.00000000E+00  0.00000000E+00
  0.00000000E+00  0.00000000E+00  0.00000000E+00
  0.00000000E+00  0.00000000E+00  0.00000000E+00
  0.00000000E+00  0.00000000E+00  0.00000000E+00
  0.00000000E+00  0.00000000E+00  0.00000000E+00
  0.00000000E+00  0.00000000E+00  0.00000000E+00
  0.00000000E+00  0.00000000E+00  0.00000000E+00
  0.00000000E+00  0.00000000E+00  0.00000000E+00
  0.00000000E+00  0.00000000E+00  0.00000000E+00
  0.00000000E+00  0.00000000E+00  0.00000000E+00
  0.00000000E+00  0.00000000E+00  0.00000000E+00
  0.00000000E+00  0.00000000E+00  0.00000000E+00
  0.00000000E+00  0.00000000E+00  0.00000000E+00
  0.00000000E+00  0.00000000E+00  0.00000000E+00
  0.00000000E+00  0.00000000E+00  0.00000000E+00
  0.00000000E+00  0.00000000E+00  0.00000000E+00
  0.00000000E+00  0.00000000E+00  0.00000000E+00
  0.00000000E+00  0.00000000E+00  0.00000000E+00
  0.00000000E+00  0.00000000E+00  0.00000000E+00
  0.00000000E+00  0.00000000E+00  0.00000000E+00
  0.00000000E+00  0.00000000E+00  0.00000000E+00
  0.00000000E+00  0.00000000E+00  0.00000000E+00
  0.00000000E+00  0.00000000E+00  0.00000000E+00
  0.00000000E+00  0.00000000E+00  0.00000000E+00
  0.00000000E+00  0.00000000E+00  0.00000000E+00
  0.00000000E+00  0.00000000E+00  0.00000000E+00
  0.00000000E+00  0.00000000E+00  0.00000000E+00
  0.00000000E+00  0.00000000E+00  0.00000000E+00
  0.00000000E+00  0.00000000E+00  0.00000000E+00
  0.00000000E+00  0.00000000E+00  0.00000000E+00
  0.00000000E+00  0.00000000E+00  0.00000000E+00
  0.00000000E+00  0.00000000E+00  0.00000000E+00
  0.00000000E+00  0.00000000E+00  0.00000000E+00
  0.00000000E+00  0.00000000E+00  0.00000000E+00
  0.00000000E+00  0.00000000E+00  0.00000000E+00
  0.00000000E+00  0.00000000E+00  0.00000000E+00
  0.00000000E+00  0.00000000E+00  0.00000000E+00
  0.00000000E+00  0.00000000E+00  0.00000000E+00
  0.00000000E+00  0.00000000E+00  0.00000000E+00
  0.00000000E+00  0.00000000E+00  0.00000000E+00
  0.00000000E+00  0.00000000E+00  0.00000000E+00
  0.00000000E+00  0.00000000E+00  0.00000000E+00
  0.00000000E+00  0.00000000E+00  0.00000000E+00
  0.00000000E+00  0.00000000E+00  0.00000000E+00
  0.00000000E+00  0.00000000E+00  0.00000000E+00
  0.00000000E+00  0.00000000E+00  0.00000000E+00
  0.00000000E+00  0.00000000E+00  0.00000000E+00
