Li8 Ga8 Cl24                            
   1.00000000000000     
    12.4580134102173101    0.0000000000000000    0.0000000000000000
     0.0000000000000000    9.8917062659250501    0.0000000000000000
     0.0000000000000000    0.0000000000000000   15.3119158148490548
   Li   Ga   Cl
    15    16    48
Direct
  0.6598340445287392  0.5023866857492565  0.3311403411756768
  0.1856818979205888  0.9831953384816418  0.6318251212862697
  0.6921742356235524  0.9890902518099219  0.6315728141177654
  0.4393385197003043  0.0134060369755901  0.8712923739277867
  0.9403140451507788  0.0135676202163464  0.8692310017058535
  0.3090156309226124  0.4923572150014687  0.3718111979541355
  0.0724099340075976  0.5263359298466922  0.1279587687303116
  0.2956716604843864  0.0146630020522260  0.3661654577635690
  0.8280530491641813  0.0271648807703048  0.3671137445988545
  0.0508539822100489  0.9950275528814360  0.1280153285355939
  0.5589850798934903  0.9882712735252415  0.1250613093487170
  0.1854922902280269  0.5180877207820503  0.6324872406292400
  0.6918435703328704  0.5197828536606838  0.6356952164939308
  0.4424696093448143  0.4823418327710550  0.8757462210444271
  0.9343041543107948  0.4858011913674677  0.8705244715152138
  0.2780979784223504  0.7460488152679394  0.0004565199645275
  0.7728875216084736  0.7544225193123109  0.0054068637977877
  0.0249130715737249  0.2513491808639777  0.4946656727149804
  0.5197604839251915  0.2431894090953476  0.4994654062383850
  0.2248488723153071  0.2500816102354097  0.9959903949687564
  0.7206480628278740  0.2508398062777122  0.9905138036937483
  0.4680231420257300  0.7582334046029785  0.5115588791010253
  0.9682174636614861  0.7415114161987294  0.5040251608462605
  0.2069072604336513  0.7507426196626156  0.8542700765193415
  0.7065601311611694  0.7522275324298601  0.8573325739338421
  0.4552750151827131  0.2512698269954647  0.6475703210139385
  0.9582122644050025  0.2503550739517794  0.6430222952718678
  0.2956226485157162  0.2452477684406975  0.1430901235467635
  0.7903077831558496  0.2478612377979575  0.1384978550646171
  0.0380011376904619  0.7383733737736685  0.3556233624153219
  0.5302987886620275  0.7616963246903842  0.3628752839000314
  0.0276905754040307  0.7519019896796045  0.8384782325685204
  0.5275416499614271  0.7514812015771963  0.8391852372434331
  0.2762527231386649  0.2523931789013562  0.6613772804938063
  0.7784952502172681  0.2479592976094945  0.6593468772759019
  0.4726800947222918  0.2281863520283090  0.1588346510721250
  0.9712915850548527  0.2349621145731262  0.1506560478578627
  0.2206788405706769  0.7528090326209782  0.3493515749382871
  0.7094699373244712  0.7427114507720464  0.3468611219114171
  0.1026652421695009  0.7509711949379350  0.6068523596543697
  0.6015413149723744  0.7537299837077903  0.6127461911804435
  0.3506759904937267  0.2505398256593792  0.8880974382539051
  0.8567830959336048  0.2479604906297125  0.8886977574370221
  0.3945840179014948  0.2487781544536635  0.3919076322095911
  0.9056260272591101  0.2492862192458645  0.3864457785447030
  0.1521381106326217  0.7537084071153060  0.1083288574672407
  0.6538819266121906  0.7657528549164750  0.1132766119156501
  0.4779786306007465  0.5677803652800439  0.2929660879955534
  0.9886388919506152  0.5681276424478107  0.2694838295128689
  0.2350926591214616  0.4268957895448558  0.2201126234172867
  0.7439158767078522  0.4401312001722523  0.2063952827479466
  0.0236949620580163  0.0699823315884475  0.7194736402128055
  0.5257099498267447  0.0770787591160059  0.7256612803679707
  0.2742067994957392  0.9288154313383157  0.7769365602009681
  0.7751523201314480  0.9273386163313038  0.7768695160611249
  0.0262610091473736  0.4227516989187561  0.7247406459664014
  0.5231772584647583  0.4315908513205531  0.7205714362984683
  0.2736687408406608  0.5741943161734585  0.7756875953904007
  0.7762652380969197  0.5760028037339414  0.7786660188628933
  0.4653797307913742  0.9268590967716869  0.2777917952240944
  0.9725618554015122  0.9199993899553053  0.2787291007425099
  0.2178194222601880  0.0735891642150829  0.2211463710594849
  0.7228282452869148  0.0819850297163544  0.2260665105175021
  0.3624679279759801  0.9387811139062936  0.5411319641880180
  0.8658365031630167  0.9318072710647688  0.5255704549828161
  0.1180061341962052  0.0687629837267112  0.9667705420071852
  0.6165599349431617  0.0643468211248345  0.9643630267242949
  0.1349665927748047  0.4336391453970443  0.4722516487770721
  0.6329273490819722  0.4234213251023124  0.4755050845597698
  0.3855798425382540  0.5689429465160464  0.0255745872218295
  0.8854009353803141  0.5739148455181243  0.0240546180060857
  0.1351971854577767  0.0687961561730187  0.4720338482102210
  0.6294741100485894  0.0647073530218039  0.4721504233324325
  0.3835643949262253  0.9320222843358640  0.0254800829374836
  0.8866205415807328  0.9347174556213109  0.0252868691226536
  0.3648681584701053  0.5718398142037624  0.5352928120003932
  0.8649350733594634  0.5687473407246209  0.5474579790112990
  0.1168048729368372  0.4326729312976018  0.9715895914895198
  0.6190003195404628  0.4272490797251733  0.9517292000078285
 
  0.00000000E+00  0.00000000E+00  0.00000000E+00
  0.00000000E+00  0.00000000E+00  0.00000000E+00
  0.00000000E+00  0.00000000E+00  0.00000000E+00
  0.00000000E+00  0.00000000E+00  0.00000000E+00
  0.00000000E+00  0.00000000E+00  0.00000000E+00
  0.00000000E+00  0.00000000E+00  0.00000000E+00
  0.00000000E+00  0.00000000E+00  0.00000000E+00
  0.00000000E+00  0.00000000E+00  0.00000000E+00
  0.00000000E+00  0.00000000E+00  0.00000000E+00
  0.00000000E+00  0.00000000E+00  0.00000000E+00
  0.00000000E+00  0.00000000E+00  0.00000000E+00
  0.00000000E+00  0.00000000E+00  0.00000000E+00
  0.00000000E+00  0.00000000E+00  0.00000000E+00
  0.00000000E+00  0.00000000E+00  0.00000000E+00
  0.00000000E+00  0.00000000E+00  0.00000000E+00
  0.00000000E+00  0.00000000E+00  0.00000000E+00
  0.00000000E+00  0.00000000E+00  0.00000000E+00
  0.00000000E+00  0.00000000E+00  0.00000000E+00
  0.00000000E+00  0.00000000E+00  0.00000000E+00
  0.00000000E+00  0.00000000E+00  0.00000000E+00
  0.00000000E+00  0.00000000E+00  0.00000000E+00
  0.00000000E+00  0.00000000E+00  0.00000000E+00
  0.00000000E+00  0.00000000E+00  0.00000000E+00
  0.00000000E+00  0.00000000E+00  0.00000000E+00
  0.00000000E+00  0.00000000E+00  0.00000000E+00
  0.00000000E+00  0.00000000E+00  0.00000000E+00
  0.00000000E+00  0.00000000E+00  0.00000000E+00
  0.00000000E+00  0.00000000E+00  0.00000000E+00
  0.00000000E+00  0.00000000E+00  0.00000000E+00
  0.00000000E+00  0.00000000E+00  0.00000000E+00
  0.00000000E+00  0.00000000E+00  0.00000000E+00
  0.00000000E+00  0.00000000E+00  0.00000000E+00
  0.00000000E+00  0.00000000E+00  0.00000000E+00
  0.00000000E+00  0.00000000E+00  0.00000000E+00
  0.00000000E+00  0.00000000E+00  0.00000000E+00
  0.00000000E+00  0.00000000E+00  0.00000000E+00
  0.00000000E+00  0.00000000E+00  0.00000000E+00
  0.00000000E+00  0.00000000E+00  0.00000000E+00
  0.00000000E+00  0.00000000E+00  0.00000000E+00
  0.00000000E+00  0.00000000E+00  0.00000000E+00
  0.00000000E+00  0.00000000E+00  0.00000000E+00
  0.00000000E+00  0.00000000E+00  0.00000000E+00
  0.00000000E+00  0.00000000E+00  0.00000000E+00
  0.00000000E+00  0.00000000E+00  0.00000000E+00
  0.00000000E+00  0.00000000E+00  0.00000000E+00
  0.00000000E+00  0.00000000E+00  0.00000000E+00
  0.00000000E+00  0.00000000E+00  0.00000000E+00
  0.00000000E+00  0.00000000E+00  0.00000000E+00
  0.00000000E+00  0.00000000E+00  0.00000000E+00
  0.00000000E+00  0.00000000E+00  0.00000000E+00
  0.00000000E+00  0.00000000E+00  0.00000000E+00
  0.00000000E+00  0.00000000E+00  0.00000000E+00
  0.00000000E+00  0.00000000E+00  0.00000000E+00
  0.00000000E+00  0.00000000E+00  0.00000000E+00
  0.00000000E+00  0.00000000E+00  0.00000000E+00
  0.00000000E+00  0.00000000E+00  0.00000000E+00
  0.00000000E+00  0.00000000E+00  0.00000000E+00
  0.00000000E+00  0.00000000E+00  0.00000000E+00
  0.00000000E+00  0.00000000E+00  0.00000000E+00
  0.00000000E+00  0.00000000E+00  0.00000000E+00
  0.00000000E+00  0.00000000E+00  0.00000000E+00
  0.00000000E+00  0.00000000E+00  0.00000000E+00
  0.00000000E+00  0.00000000E+00  0.00000000E+00
  0.00000000E+00  0.00000000E+00  0.00000000E+00
  0.00000000E+00  0.00000000E+00  0.00000000E+00
  0.00000000E+00  0.00000000E+00  0.00000000E+00
  0.00000000E+00  0.00000000E+00  0.00000000E+00
  0.00000000E+00  0.00000000E+00  0.00000000E+00
  0.00000000E+00  0.00000000E+00  0.00000000E+00
  0.00000000E+00  0.00000000E+00  0.00000000E+00
  0.00000000E+00  0.00000000E+00  0.00000000E+00
  0.00000000E+00  0.00000000E+00  0.00000000E+00
  0.00000000E+00  0.00000000E+00  0.00000000E+00
  0.00000000E+00  0.00000000E+00  0.00000000E+00
  0.00000000E+00  0.00000000E+00  0.00000000E+00
  0.00000000E+00  0.00000000E+00  0.00000000E+00
  0.00000000E+00  0.00000000E+00  0.00000000E+00
  0.00000000E+00  0.00000000E+00  0.00000000E+00
  0.00000000E+00  0.00000000E+00  0.00000000E+00
