Li   Ga   Cl                            
   1.00000000000000     
    12.4580134102172995    0.0000000000000000    0.0000000000000000
     0.0000000000000000    9.8917062659250501    0.0000000000000000
     0.0000000000000000    0.0000000000000000   15.3119158148490992
   Li   Ga   Cl
    15    16    48
Direct
  0.7039242710107932  0.5043633664352444  0.3462917142395936
  0.1861642569912684  0.9834126370227864  0.6312866278998347
  0.6918599816127324  0.9891300509095989  0.6325113750674172
  0.4404982703909501  0.0133572292165732  0.8717393132618870
  0.9399566116518338  0.0141890701950077  0.8690936446961545
  0.3136523380289306  0.4924028977588786  0.3689527427457787
  0.0721811298290945  0.5244321540542755  0.1292799207599392
  0.2995137766140767  0.0117744451974637  0.3657869643774542
  0.8262461096991310  0.0248019631368980  0.3669556845286747
  0.0523340994712926  0.9947362446824161  0.1279289566289162
  0.5588338681561199  0.9876572021546839  0.1267954162965684
  0.1861813770407959  0.5176418201277834  0.6319835704380404
  0.6922774228931359  0.5190024785417443  0.6354992528727477
  0.4422130933879938  0.4828895992177890  0.8765013325443557
  0.9338633410271031  0.4854902570285914  0.8710480208532031
  0.2779657839541247  0.7462077862992451  0.0006602012639696
  0.7730716633764060  0.7543741157681481  0.0057858384929448
  0.0248276513116037  0.2505380383453782  0.4945132095870148
  0.5194375927081750  0.2424038309984522  0.4993073370564919
  0.2249397308285562  0.2502845056746391  0.9961089261434304
  0.7207573424449892  0.2512262470114027  0.9910308691759920
  0.4695060766307372  0.7562786916894982  0.5100718914804665
  0.9694886789844949  0.7425124663685396  0.5034428315428432
  0.2070108758173167  0.7510975183183635  0.8542738875027901
  0.7067824325006833  0.7523196423647813  0.8576005445136676
  0.4549225006188741  0.2507593805850267  0.6474800492903323
  0.9582121642730043  0.2502202451966457  0.6429944294257630
  0.2957888528775189  0.2447960064013560  0.1431376857464515
  0.7905266547292888  0.2484535297495932  0.1389054797262793
  0.0390870743050387  0.7399238644017500  0.3551530512531814
  0.5320308100420884  0.7542496503076347  0.3613432523082639
  0.0277171861283450  0.7521402866563632  0.8383594168780482
  0.5277553102693009  0.7519092072166080  0.8392669437525234
  0.2758749411938159  0.2518281986213023  0.6612376852383360
  0.7784808075337603  0.2478975080384961  0.6595995758828378
  0.4725219040447343  0.2279533558335406  0.1588977620479404
  0.9712652706097116  0.2376108104660165  0.1521294159887654
  0.2212416024059158  0.7523149496657046  0.3471930475906024
  0.7135510320932626  0.7474597032974558  0.3477994218862492
  0.1024634254416397  0.7506626389583269  0.6070946994973426
  0.6016223549127619  0.7537930916580160  0.6126451323573706
  0.3505410206402781  0.2505742025720104  0.8880815852433579
  0.8563612876800878  0.2476070251807797  0.8887975096075537
  0.3960410603702627  0.2474086607759593  0.3908176664241164
  0.9027774338150601  0.2483648562010596  0.3871004065320290
  0.1513775599414743  0.7527894239757988  0.1083194471148509
  0.6536755878634508  0.7651834056575465  0.1131932914402593
  0.4828851570881784  0.5629092512423463  0.2925986259177027
  0.9856146443589646  0.5692229389435374  0.2703188513145237
  0.2337603644828534  0.4260406670009602  0.2205073079467176
  0.7353235578131068  0.4373994611766687  0.2066588964714753
  0.0242957097527982  0.0705833831503639  0.7198086937198307
  0.5252322629197921  0.0762321720647143  0.7254894660310115
  0.2743644103384206  0.9287071825539048  0.7765393694482150
  0.7748946387617106  0.9282159357762586  0.7773806974278157
  0.0251558403059670  0.4244008843137025  0.7237964073484572
  0.5230311269964257  0.4305678170372241  0.7207304030170053
  0.2736549242385956  0.5742538325678604  0.7757616224851542
  0.7763013786996514  0.5764587410992666  0.7782498387411824
  0.4681484549708229  0.9244447885407759  0.2786859652104690
  0.9734097509247872  0.9213719085250549  0.2785048789795847
  0.2187795688121047  0.0725666389809076  0.2211460426624211
  0.7237925152254675  0.0807718090373715  0.2254329457003961
  0.3637370492067509  0.9380333478451746  0.5379577812856421
  0.8663516229883821  0.9314170088389484  0.5261786807221734
  0.1177778318193281  0.0688272736693059  0.9673796761844221
  0.6158591675014322  0.0653089698797387  0.9654810572793832
  0.1341951172204509  0.4326143243223698  0.4713493583538766
  0.6310087561345521  0.4269754978848794  0.4795326012393927
  0.3850270774913351  0.5687677960560177  0.0258430511348382
  0.8850736232615295  0.5734877522901274  0.0250129216113430
  0.1347290826575592  0.0680959554450766  0.4714041316906690
  0.6311757199421124  0.0666406344609244  0.4718797685362569
  0.3835546621311793  0.9315081881143185  0.0263731458113077
  0.8864344475715993  0.9350322218859557  0.0255710279739230
  0.3636080193209079  0.5718328877309629  0.5343935189013477
  0.8646166130668059  0.5680237815648767  0.5428336471603037
  0.1164911534369885  0.4326031778893025  0.9717404427514363
  0.6190731074956590  0.4276922001312609  0.9520932576439661
 
             NaN             NaN             NaN
             NaN             NaN             NaN
             NaN             NaN             NaN
             NaN             NaN             NaN
             NaN             NaN             NaN
             NaN             NaN             NaN
             NaN             NaN             NaN
             NaN             NaN             NaN
             NaN             NaN             NaN
             NaN             NaN             NaN
             NaN             NaN             NaN
             NaN             NaN             NaN
             NaN             NaN             NaN
             NaN             NaN             NaN
             NaN             NaN             NaN
             NaN             NaN             NaN
             NaN             NaN             NaN
             NaN             NaN             NaN
             NaN             NaN             NaN
             NaN             NaN             NaN
             NaN             NaN             NaN
             NaN             NaN             NaN
             NaN             NaN             NaN
             NaN             NaN             NaN
             NaN             NaN             NaN
             NaN             NaN             NaN
             NaN             NaN             NaN
             NaN             NaN             NaN
             NaN             NaN             NaN
             NaN             NaN             NaN
             NaN             NaN             NaN
             NaN             NaN             NaN
             NaN             NaN             NaN
             NaN             NaN             NaN
             NaN             NaN             NaN
             NaN             NaN             NaN
             NaN             NaN             NaN
             NaN             NaN             NaN
             NaN             NaN             NaN
             NaN             NaN             NaN
             NaN             NaN             NaN
             NaN             NaN             NaN
             NaN             NaN             NaN
             NaN             NaN             NaN
             NaN             NaN             NaN
             NaN             NaN             NaN
             NaN             NaN             NaN
             NaN             NaN             NaN
             NaN             NaN             NaN
             NaN             NaN             NaN
             NaN             NaN             NaN
             NaN             NaN             NaN
             NaN             NaN             NaN
             NaN             NaN             NaN
             NaN             NaN             NaN
             NaN             NaN             NaN
             NaN             NaN             NaN
             NaN             NaN             NaN
             NaN             NaN             NaN
             NaN             NaN             NaN
             NaN             NaN             NaN
             NaN             NaN             NaN
             NaN             NaN             NaN
             NaN             NaN             NaN
             NaN             NaN             NaN
             NaN             NaN             NaN
             NaN             NaN             NaN
             NaN             NaN             NaN
             NaN             NaN             NaN
             NaN             NaN             NaN
             NaN             NaN             NaN
             NaN             NaN             NaN
             NaN             NaN             NaN
             NaN             NaN             NaN
             NaN             NaN             NaN
             NaN             NaN             NaN
             NaN             NaN             NaN
             NaN             NaN             NaN
             NaN             NaN             NaN
