Li8 Ga8 Cl24                            
   1.00000000000000     
    12.4580134102173101    0.0000000000000000    0.0000000000000000
     0.0000000000000000    9.8917062659250501    0.0000000000000000
     0.0000000000000000    0.0000000000000000   15.3119158148490548
   Li   Ga   Cl
    15    16    48
Direct
  0.8134615903472550  0.4840332260550168  0.3666577730123347
  0.1904883046778221  0.9868043555031758  0.6319247379720229
  0.6891923725471638  0.9862346036359374  0.6338716477713988
  0.4416029762761382  0.0134160920226715  0.8733655872496940
  0.9368910303222510  0.0158067302015839  0.8721688160189125
  0.3188664918453076  0.4915914799736342  0.3646904649845276
  0.0612778502108197  0.5118675030079882  0.1289699515386480
  0.3127157148322808  0.0115053021847662  0.3650885441753466
  0.8067126010359986  0.0104048238692180  0.3644846404567468
  0.0580498031923693  0.9885249043447182  0.1280662765835845
  0.5608962573601709  0.9874537536980198  0.1294682223716197
  0.1913711704076702  0.5141260685675528  0.6322447129690547
  0.6870331872399850  0.5133359999895031  0.6333860197725552
  0.4412804489744778  0.4840862975209251  0.8776356614258015
  0.9353898350081631  0.4830684856174569  0.8720310771893562
  0.2759801087845069  0.7451977189768759  0.0023170187357884
  0.7731572951967985  0.7528669337757861  0.0065337554213404
  0.0264397801780827  0.2500270469769465  0.4959941429765116
  0.5263947460088286  0.2495651614389270  0.4956857579459062
  0.2248733565750600  0.2500002945277963  0.9962395429981185
  0.7191453959196860  0.2574373140998715  0.9954836916540120
  0.4736223452609564  0.7511656565643805  0.5056347148008723
  0.9733898843183822  0.7500856917114117  0.5041580749391900
  0.2065771976056156  0.7505513834838120  0.8553956040562130
  0.7082820284231398  0.7503290612611991  0.8576026608743537
  0.4582095813535775  0.2505929332079743  0.6433045411339016
  0.9584251372846565  0.2499292015198825  0.6440043397033717
  0.2947880607758591  0.2442428407881101  0.1435440605414963
  0.7869561426205031  0.2600195872613653  0.1444817791490384
  0.0421683580764372  0.7506388187313733  0.3564728006675301
  0.5398993105640244  0.7453353853987149  0.3575613526871176
  0.0273452598204665  0.7505797848304349  0.8393620982967147
  0.5288388269017575  0.7517939377958791  0.8400571484059743
  0.2782002176326286  0.2500712096447641  0.6577150012515541
  0.7787263924055129  0.2496333373609029  0.6599754812827416
  0.4712303334671379  0.2296114673794455  0.1600689168560276
  0.9689649390950225  0.2505147534362576  0.1529207964506657
  0.2218012350138228  0.7525334157821646  0.3423560114769630
  0.7206086133923315  0.7516692983742617  0.3453065937226860
  0.1009476113105078  0.7502560364201268  0.6105492919940287
  0.6011898250319215  0.7511286711863179  0.6125139769938865
  0.3501258633392229  0.2499382029716613  0.8879156028227977
  0.8556929524139582  0.2492791848605610  0.8931841514249249
  0.3988408383519682  0.2491104500044445  0.3897490276770936
  0.9005800771870002  0.2490372903644467  0.3889540640440764
  0.1476010536671089  0.7485448523781829  0.1088609594689631
  0.6524342781672667  0.7608657838180944  0.1126557903269865
  0.4751012751749672  0.5697010091745126  0.2835824123316764
  0.9783012450711072  0.5729529127202138  0.2781817690732188
  0.2285906912649892  0.4235419973072850  0.2208337829209289
  0.7299172827081510  0.4288711214526307  0.2290193557991638
  0.0250850509346586  0.0727053519012818  0.7220076723942416
  0.5245853578239017  0.0741283030906215  0.7224765094568727
  0.2744926422039864  0.9278301838811811  0.7771649959173530
  0.7745819483700397  0.9287744936760555  0.7785206002364373
  0.0248251969469012  0.4269370580920490  0.7221929475264259
  0.5236867952603702  0.4288816198518296  0.7201397137386228
  0.2741425904306115  0.5735291281302839  0.7768259031962309
  0.7771141792617308  0.5765862967269417  0.7762215464490825
  0.4740093675241948  0.9245680432854094  0.2805270853300156
  0.9736435481877032  0.9267223893552079  0.2783137017356982
  0.2201870099581943  0.0706073383172948  0.2214812077715941
  0.7258358452888816  0.0749477964583842  0.2199747091302650
  0.3649736614824189  0.9331727779630108  0.5315200871344293
  0.8657983799793689  0.9318659216443734  0.5302421398846139
  0.1169025899068557  0.0679120673939500  0.9694694742378697
  0.6161685328519220  0.0689912573685884  0.9694503383888468
  0.1339600053487948  0.4317228965382961  0.4707248337819522
  0.6343655114528891  0.4317401333133702  0.4725336224704722
  0.3833185194194488  0.5679634492322065  0.0267556771736616
  0.8820289159048830  0.5690374284180345  0.0294007405211859
  0.1341589846580674  0.0677488546592657  0.4707875848905699
  0.6345285016072162  0.0677507045671768  0.4709135198178391
  0.3823115600240338  0.9300328887925764  0.0271235430616437
  0.8869082674755975  0.9329519471122503  0.0268841134896614
  0.3646146108715709  0.5693176537607462  0.5321343464650458
  0.8661319611294747  0.5677614211239405  0.5297439409567420
  0.1154977806392901  0.4315317199679454  0.9711960372825890
  0.6186759835731895  0.4321039143516900  0.9513921624500583
 
  0.00000000E+00  0.00000000E+00  0.00000000E+00
  0.00000000E+00  0.00000000E+00  0.00000000E+00
  0.00000000E+00  0.00000000E+00  0.00000000E+00
  0.00000000E+00  0.00000000E+00  0.00000000E+00
  0.00000000E+00  0.00000000E+00  0.00000000E+00
  0.00000000E+00  0.00000000E+00  0.00000000E+00
  0.00000000E+00  0.00000000E+00  0.00000000E+00
  0.00000000E+00  0.00000000E+00  0.00000000E+00
  0.00000000E+00  0.00000000E+00  0.00000000E+00
  0.00000000E+00  0.00000000E+00  0.00000000E+00
  0.00000000E+00  0.00000000E+00  0.00000000E+00
  0.00000000E+00  0.00000000E+00  0.00000000E+00
  0.00000000E+00  0.00000000E+00  0.00000000E+00
  0.00000000E+00  0.00000000E+00  0.00000000E+00
  0.00000000E+00  0.00000000E+00  0.00000000E+00
  0.00000000E+00  0.00000000E+00  0.00000000E+00
  0.00000000E+00  0.00000000E+00  0.00000000E+00
  0.00000000E+00  0.00000000E+00  0.00000000E+00
  0.00000000E+00  0.00000000E+00  0.00000000E+00
  0.00000000E+00  0.00000000E+00  0.00000000E+00
  0.00000000E+00  0.00000000E+00  0.00000000E+00
  0.00000000E+00  0.00000000E+00  0.00000000E+00
  0.00000000E+00  0.00000000E+00  0.00000000E+00
  0.00000000E+00  0.00000000E+00  0.00000000E+00
  0.00000000E+00  0.00000000E+00  0.00000000E+00
  0.00000000E+00  0.00000000E+00  0.00000000E+00
  0.00000000E+00  0.00000000E+00  0.00000000E+00
  0.00000000E+00  0.00000000E+00  0.00000000E+00
  0.00000000E+00  0.00000000E+00  0.00000000E+00
  0.00000000E+00  0.00000000E+00  0.00000000E+00
  0.00000000E+00  0.00000000E+00  0.00000000E+00
  0.00000000E+00  0.00000000E+00  0.00000000E+00
  0.00000000E+00  0.00000000E+00  0.00000000E+00
  0.00000000E+00  0.00000000E+00  0.00000000E+00
  0.00000000E+00  0.00000000E+00  0.00000000E+00
  0.00000000E+00  0.00000000E+00  0.00000000E+00
  0.00000000E+00  0.00000000E+00  0.00000000E+00
  0.00000000E+00  0.00000000E+00  0.00000000E+00
  0.00000000E+00  0.00000000E+00  0.00000000E+00
  0.00000000E+00  0.00000000E+00  0.00000000E+00
  0.00000000E+00  0.00000000E+00  0.00000000E+00
  0.00000000E+00  0.00000000E+00  0.00000000E+00
  0.00000000E+00  0.00000000E+00  0.00000000E+00
  0.00000000E+00  0.00000000E+00  0.00000000E+00
  0.00000000E+00  0.00000000E+00  0.00000000E+00
  0.00000000E+00  0.00000000E+00  0.00000000E+00
  0.00000000E+00  0.00000000E+00  0.00000000E+00
  0.00000000E+00  0.00000000E+00  0.00000000E+00
  0.00000000E+00  0.00000000E+00  0.00000000E+00
  0.00000000E+00  0.00000000E+00  0.00000000E+00
  0.00000000E+00  0.00000000E+00  0.00000000E+00
  0.00000000E+00  0.00000000E+00  0.00000000E+00
  0.00000000E+00  0.00000000E+00  0.00000000E+00
  0.00000000E+00  0.00000000E+00  0.00000000E+00
  0.00000000E+00  0.00000000E+00  0.00000000E+00
  0.00000000E+00  0.00000000E+00  0.00000000E+00
  0.00000000E+00  0.00000000E+00  0.00000000E+00
  0.00000000E+00  0.00000000E+00  0.00000000E+00
  0.00000000E+00  0.00000000E+00  0.00000000E+00
  0.00000000E+00  0.00000000E+00  0.00000000E+00
  0.00000000E+00  0.00000000E+00  0.00000000E+00
  0.00000000E+00  0.00000000E+00  0.00000000E+00
  0.00000000E+00  0.00000000E+00  0.00000000E+00
  0.00000000E+00  0.00000000E+00  0.00000000E+00
  0.00000000E+00  0.00000000E+00  0.00000000E+00
  0.00000000E+00  0.00000000E+00  0.00000000E+00
  0.00000000E+00  0.00000000E+00  0.00000000E+00
  0.00000000E+00  0.00000000E+00  0.00000000E+00
  0.00000000E+00  0.00000000E+00  0.00000000E+00
  0.00000000E+00  0.00000000E+00  0.00000000E+00
  0.00000000E+00  0.00000000E+00  0.00000000E+00
  0.00000000E+00  0.00000000E+00  0.00000000E+00
  0.00000000E+00  0.00000000E+00  0.00000000E+00
  0.00000000E+00  0.00000000E+00  0.00000000E+00
  0.00000000E+00  0.00000000E+00  0.00000000E+00
  0.00000000E+00  0.00000000E+00  0.00000000E+00
  0.00000000E+00  0.00000000E+00  0.00000000E+00
  0.00000000E+00  0.00000000E+00  0.00000000E+00
  0.00000000E+00  0.00000000E+00  0.00000000E+00
